c independent witness-pair encoding of the exact PB feasibility problem
c n 10
c primary variables 1 through 210 are lexicographic 4-subsets
p cnf 2730 6735
-1 -196 0
-1 -197 0
-1 -198 0
-1 -199 0
-1 -200 0
-1 -201 0
-1 -202 0
-1 -203 0
-1 -204 0
-1 -205 0
-1 -206 0
-1 -207 0
-1 -208 0
-1 -209 0
-1 -210 0
-2 -186 0
-2 -187 0
-2 -188 0
-2 -189 0
-2 -190 0
-2 -191 0
-2 -192 0
-2 -193 0
-2 -194 0
-2 -195 0
-2 -206 0
-2 -207 0
-2 -208 0
-2 -209 0
-2 -210 0
-3 -180 0
-3 -181 0
-3 -182 0
-3 -183 0
-3 -184 0
-3 -185 0
-3 -192 0
-3 -193 0
-3 -194 0
-3 -195 0
-3 -202 0
-3 -203 0
-3 -204 0
-3 -205 0
-3 -210 0
-4 -177 0
-4 -178 0
-4 -179 0
-4 -183 0
-4 -184 0
-4 -185 0
-4 -189 0
-4 -190 0
-4 -191 0
-4 -195 0
-4 -199 0
-4 -200 0
-4 -201 0
-4 -205 0
-4 -209 0
-5 -176 0
-5 -178 0
-5 -179 0
-5 -181 0
-5 -182 0
-5 -185 0
-5 -187 0
-5 -188 0
-5 -191 0
-5 -194 0
-5 -197 0
-5 -198 0
-5 -201 0
-5 -204 0
-5 -208 0
-6 -176 0
-6 -177 0
-6 -179 0
-6 -180 0
-6 -182 0
-6 -184 0
-6 -186 0
-6 -188 0
-6 -190 0
-6 -193 0
-6 -196 0
-6 -198 0
-6 -200 0
-6 -203 0
-6 -207 0
-7 -176 0
-7 -177 0
-7 -178 0
-7 -180 0
-7 -181 0
-7 -183 0
-7 -186 0
-7 -187 0
-7 -189 0
-7 -192 0
-7 -196 0
-7 -197 0
-7 -199 0
-7 -202 0
-7 -206 0
-8 -166 0
-8 -167 0
-8 -168 0
-8 -169 0
-8 -170 0
-8 -171 0
-8 -172 0
-8 -173 0
-8 -174 0
-8 -175 0
-8 -206 0
-8 -207 0
-8 -208 0
-8 -209 0
-8 -210 0
-9 -160 0
-9 -161 0
-9 -162 0
-9 -163 0
-9 -164 0
-9 -165 0
-9 -172 0
-9 -173 0
-9 -174 0
-9 -175 0
-9 -202 0
-9 -203 0
-9 -204 0
-9 -205 0
-9 -210 0
-10 -157 0
-10 -158 0
-10 -159 0
-10 -163 0
-10 -164 0
-10 -165 0
-10 -169 0
-10 -170 0
-10 -171 0
-10 -175 0
-10 -199 0
-10 -200 0
-10 -201 0
-10 -205 0
-10 -209 0
-11 -156 0
-11 -158 0
-11 -159 0
-11 -161 0
-11 -162 0
-11 -165 0
-11 -167 0
-11 -168 0
-11 -171 0
-11 -174 0
-11 -197 0
-11 -198 0
-11 -201 0
-11 -204 0
-11 -208 0
-12 -156 0
-12 -157 0
-12 -159 0
-12 -160 0
-12 -162 0
-12 -164 0
-12 -166 0
-12 -168 0
-12 -170 0
-12 -173 0
-12 -196 0
-12 -198 0
-12 -200 0
-12 -203 0
-12 -207 0
-13 -156 0
-13 -157 0
-13 -158 0
-13 -160 0
-13 -161 0
-13 -163 0
-13 -166 0
-13 -167 0
-13 -169 0
-13 -172 0
-13 -196 0
-13 -197 0
-13 -199 0
-13 -202 0
-13 -206 0
-14 -150 0
-14 -151 0
-14 -152 0
-14 -153 0
-14 -154 0
-14 -155 0
-14 -172 0
-14 -173 0
-14 -174 0
-14 -175 0
-14 -192 0
-14 -193 0
-14 -194 0
-14 -195 0
-14 -210 0
-15 -147 0
-15 -148 0
-15 -149 0
-15 -153 0
-15 -154 0
-15 -155 0
-15 -169 0
-15 -170 0
-15 -171 0
-15 -175 0
-15 -189 0
-15 -190 0
-15 -191 0
-15 -195 0
-15 -209 0
-16 -146 0
-16 -148 0
-16 -149 0
-16 -151 0
-16 -152 0
-16 -155 0
-16 -167 0
-16 -168 0
-16 -171 0
-16 -174 0
-16 -187 0
-16 -188 0
-16 -191 0
-16 -194 0
-16 -208 0
-17 -146 0
-17 -147 0
-17 -149 0
-17 -150 0
-17 -152 0
-17 -154 0
-17 -166 0
-17 -168 0
-17 -170 0
-17 -173 0
-17 -186 0
-17 -188 0
-17 -190 0
-17 -193 0
-17 -207 0
-18 -146 0
-18 -147 0
-18 -148 0
-18 -150 0
-18 -151 0
-18 -153 0
-18 -166 0
-18 -167 0
-18 -169 0
-18 -172 0
-18 -186 0
-18 -187 0
-18 -189 0
-18 -192 0
-18 -206 0
-19 -143 0
-19 -144 0
-19 -145 0
-19 -153 0
-19 -154 0
-19 -155 0
-19 -163 0
-19 -164 0
-19 -165 0
-19 -175 0
-19 -183 0
-19 -184 0
-19 -185 0
-19 -195 0
-19 -205 0
-20 -142 0
-20 -144 0
-20 -145 0
-20 -151 0
-20 -152 0
-20 -155 0
-20 -161 0
-20 -162 0
-20 -165 0
-20 -174 0
-20 -181 0
-20 -182 0
-20 -185 0
-20 -194 0
-20 -204 0
-21 -142 0
-21 -143 0
-21 -145 0
-21 -150 0
-21 -152 0
-21 -154 0
-21 -160 0
-21 -162 0
-21 -164 0
-21 -173 0
-21 -180 0
-21 -182 0
-21 -184 0
-21 -193 0
-21 -203 0
-22 -142 0
-22 -143 0
-22 -144 0
-22 -150 0
-22 -151 0
-22 -153 0
-22 -160 0
-22 -161 0
-22 -163 0
-22 -172 0
-22 -180 0
-22 -181 0
-22 -183 0
-22 -192 0
-22 -202 0
-23 -141 0
-23 -144 0
-23 -145 0
-23 -148 0
-23 -149 0
-23 -155 0
-23 -158 0
-23 -159 0
-23 -165 0
-23 -171 0
-23 -178 0
-23 -179 0
-23 -185 0
-23 -191 0
-23 -201 0
-24 -141 0
-24 -143 0
-24 -145 0
-24 -147 0
-24 -149 0
-24 -154 0
-24 -157 0
-24 -159 0
-24 -164 0
-24 -170 0
-24 -177 0
-24 -179 0
-24 -184 0
-24 -190 0
-24 -200 0
-25 -141 0
-25 -143 0
-25 -144 0
-25 -147 0
-25 -148 0
-25 -153 0
-25 -157 0
-25 -158 0
-25 -163 0
-25 -169 0
-25 -177 0
-25 -178 0
-25 -183 0
-25 -189 0
-25 -199 0
-26 -141 0
-26 -142 0
-26 -145 0
-26 -146 0
-26 -149 0
-26 -152 0
-26 -156 0
-26 -159 0
-26 -162 0
-26 -168 0
-26 -176 0
-26 -179 0
-26 -182 0
-26 -188 0
-26 -198 0
-27 -141 0
-27 -142 0
-27 -144 0
-27 -146 0
-27 -148 0
-27 -151 0
-27 -156 0
-27 -158 0
-27 -161 0
-27 -167 0
-27 -176 0
-27 -178 0
-27 -181 0
-27 -187 0
-27 -197 0
-28 -141 0
-28 -142 0
-28 -143 0
-28 -146 0
-28 -147 0
-28 -150 0
-28 -156 0
-28 -157 0
-28 -160 0
-28 -166 0
-28 -176 0
-28 -177 0
-28 -180 0
-28 -186 0
-28 -196 0
-29 -131 0
-29 -132 0
-29 -133 0
-29 -134 0
-29 -135 0
-29 -136 0
-29 -137 0
-29 -138 0
-29 -139 0
-29 -140 0
-29 -206 0
-29 -207 0
-29 -208 0
-29 -209 0
-29 -210 0
-30 -125 0
-30 -126 0
-30 -127 0
-30 -128 0
-30 -129 0
-30 -130 0
-30 -137 0
-30 -138 0
-30 -139 0
-30 -140 0
-30 -202 0
-30 -203 0
-30 -204 0
-30 -205 0
-30 -210 0
-31 -122 0
-31 -123 0
-31 -124 0
-31 -128 0
-31 -129 0
-31 -130 0
-31 -134 0
-31 -135 0
-31 -136 0
-31 -140 0
-31 -199 0
-31 -200 0
-31 -201 0
-31 -205 0
-31 -209 0
-32 -121 0
-32 -123 0
-32 -124 0
-32 -126 0
-32 -127 0
-32 -130 0
-32 -132 0
-32 -133 0
-32 -136 0
-32 -139 0
-32 -197 0
-32 -198 0
-32 -201 0
-32 -204 0
-32 -208 0
-33 -121 0
-33 -122 0
-33 -124 0
-33 -125 0
-33 -127 0
-33 -129 0
-33 -131 0
-33 -133 0
-33 -135 0
-33 -138 0
-33 -196 0
-33 -198 0
-33 -200 0
-33 -203 0
-33 -207 0
-34 -121 0
-34 -122 0
-34 -123 0
-34 -125 0
-34 -126 0
-34 -128 0
-34 -131 0
-34 -132 0
-34 -134 0
-34 -137 0
-34 -196 0
-34 -197 0
-34 -199 0
-34 -202 0
-34 -206 0
-35 -115 0
-35 -116 0
-35 -117 0
-35 -118 0
-35 -119 0
-35 -120 0
-35 -137 0
-35 -138 0
-35 -139 0
-35 -140 0
-35 -192 0
-35 -193 0
-35 -194 0
-35 -195 0
-35 -210 0
-36 -112 0
-36 -113 0
-36 -114 0
-36 -118 0
-36 -119 0
-36 -120 0
-36 -134 0
-36 -135 0
-36 -136 0
-36 -140 0
-36 -189 0
-36 -190 0
-36 -191 0
-36 -195 0
-36 -209 0
-37 -111 0
-37 -113 0
-37 -114 0
-37 -116 0
-37 -117 0
-37 -120 0
-37 -132 0
-37 -133 0
-37 -136 0
-37 -139 0
-37 -187 0
-37 -188 0
-37 -191 0
-37 -194 0
-37 -208 0
-38 -111 0
-38 -112 0
-38 -114 0
-38 -115 0
-38 -117 0
-38 -119 0
-38 -131 0
-38 -133 0
-38 -135 0
-38 -138 0
-38 -186 0
-38 -188 0
-38 -190 0
-38 -193 0
-38 -207 0
-39 -111 0
-39 -112 0
-39 -113 0
-39 -115 0
-39 -116 0
-39 -118 0
-39 -131 0
-39 -132 0
-39 -134 0
-39 -137 0
-39 -186 0
-39 -187 0
-39 -189 0
-39 -192 0
-39 -206 0
-40 -108 0
-40 -109 0
-40 -110 0
-40 -118 0
-40 -119 0
-40 -120 0
-40 -128 0
-40 -129 0
-40 -130 0
-40 -140 0
-40 -183 0
-40 -184 0
-40 -185 0
-40 -195 0
-40 -205 0
-41 -107 0
-41 -109 0
-41 -110 0
-41 -116 0
-41 -117 0
-41 -120 0
-41 -126 0
-41 -127 0
-41 -130 0
-41 -139 0
-41 -181 0
-41 -182 0
-41 -185 0
-41 -194 0
-41 -204 0
-42 -107 0
-42 -108 0
-42 -110 0
-42 -115 0
-42 -117 0
-42 -119 0
-42 -125 0
-42 -127 0
-42 -129 0
-42 -138 0
-42 -180 0
-42 -182 0
-42 -184 0
-42 -193 0
-42 -203 0
-43 -107 0
-43 -108 0
-43 -109 0
-43 -115 0
-43 -116 0
-43 -118 0
-43 -125 0
-43 -126 0
-43 -128 0
-43 -137 0
-43 -180 0
-43 -181 0
-43 -183 0
-43 -192 0
-43 -202 0
-44 -106 0
-44 -109 0
-44 -110 0
-44 -113 0
-44 -114 0
-44 -120 0
-44 -123 0
-44 -124 0
-44 -130 0
-44 -136 0
-44 -178 0
-44 -179 0
-44 -185 0
-44 -191 0
-44 -201 0
-45 -106 0
-45 -108 0
-45 -110 0
-45 -112 0
-45 -114 0
-45 -119 0
-45 -122 0
-45 -124 0
-45 -129 0
-45 -135 0
-45 -177 0
-45 -179 0
-45 -184 0
-45 -190 0
-45 -200 0
-46 -106 0
-46 -108 0
-46 -109 0
-46 -112 0
-46 -113 0
-46 -118 0
-46 -122 0
-46 -123 0
-46 -128 0
-46 -134 0
-46 -177 0
-46 -178 0
-46 -183 0
-46 -189 0
-46 -199 0
-47 -106 0
-47 -107 0
-47 -110 0
-47 -111 0
-47 -114 0
-47 -117 0
-47 -121 0
-47 -124 0
-47 -127 0
-47 -133 0
-47 -176 0
-47 -179 0
-47 -182 0
-47 -188 0
-47 -198 0
-48 -106 0
-48 -107 0
-48 -109 0
-48 -111 0
-48 -113 0
-48 -116 0
-48 -121 0
-48 -123 0
-48 -126 0
-48 -132 0
-48 -176 0
-48 -178 0
-48 -181 0
-48 -187 0
-48 -197 0
-49 -106 0
-49 -107 0
-49 -108 0
-49 -111 0
-49 -112 0
-49 -115 0
-49 -121 0
-49 -122 0
-49 -125 0
-49 -131 0
-49 -176 0
-49 -177 0
-49 -180 0
-49 -186 0
-49 -196 0
-50 -100 0
-50 -101 0
-50 -102 0
-50 -103 0
-50 -104 0
-50 -105 0
-50 -137 0
-50 -138 0
-50 -139 0
-50 -140 0
-50 -172 0
-50 -173 0
-50 -174 0
-50 -175 0
-50 -210 0
-51 -97 0
-51 -98 0
-51 -99 0
-51 -103 0
-51 -104 0
-51 -105 0
-51 -134 0
-51 -135 0
-51 -136 0
-51 -140 0
-51 -169 0
-51 -170 0
-51 -171 0
-51 -175 0
-51 -209 0
-52 -96 0
-52 -98 0
-52 -99 0
-52 -101 0
-52 -102 0
-52 -105 0
-52 -132 0
-52 -133 0
-52 -136 0
-52 -139 0
-52 -167 0
-52 -168 0
-52 -171 0
-52 -174 0
-52 -208 0
-53 -96 0
-53 -97 0
-53 -99 0
-53 -100 0
-53 -102 0
-53 -104 0
-53 -131 0
-53 -133 0
-53 -135 0
-53 -138 0
-53 -166 0
-53 -168 0
-53 -170 0
-53 -173 0
-53 -207 0
-54 -96 0
-54 -97 0
-54 -98 0
-54 -100 0
-54 -101 0
-54 -103 0
-54 -131 0
-54 -132 0
-54 -134 0
-54 -137 0
-54 -166 0
-54 -167 0
-54 -169 0
-54 -172 0
-54 -206 0
-55 -93 0
-55 -94 0
-55 -95 0
-55 -103 0
-55 -104 0
-55 -105 0
-55 -128 0
-55 -129 0
-55 -130 0
-55 -140 0
-55 -163 0
-55 -164 0
-55 -165 0
-55 -175 0
-55 -205 0
-56 -92 0
-56 -94 0
-56 -95 0
-56 -101 0
-56 -102 0
-56 -105 0
-56 -126 0
-56 -127 0
-56 -130 0
-56 -139 0
-56 -161 0
-56 -162 0
-56 -165 0
-56 -174 0
-56 -204 0
-57 -92 0
-57 -93 0
-57 -95 0
-57 -100 0
-57 -102 0
-57 -104 0
-57 -125 0
-57 -127 0
-57 -129 0
-57 -138 0
-57 -160 0
-57 -162 0
-57 -164 0
-57 -173 0
-57 -203 0
-58 -92 0
-58 -93 0
-58 -94 0
-58 -100 0
-58 -101 0
-58 -103 0
-58 -125 0
-58 -126 0
-58 -128 0
-58 -137 0
-58 -160 0
-58 -161 0
-58 -163 0
-58 -172 0
-58 -202 0
-59 -91 0
-59 -94 0
-59 -95 0
-59 -98 0
-59 -99 0
-59 -105 0
-59 -123 0
-59 -124 0
-59 -130 0
-59 -136 0
-59 -158 0
-59 -159 0
-59 -165 0
-59 -171 0
-59 -201 0
-60 -91 0
-60 -93 0
-60 -95 0
-60 -97 0
-60 -99 0
-60 -104 0
-60 -122 0
-60 -124 0
-60 -129 0
-60 -135 0
-60 -157 0
-60 -159 0
-60 -164 0
-60 -170 0
-60 -200 0
-61 -91 0
-61 -93 0
-61 -94 0
-61 -97 0
-61 -98 0
-61 -103 0
-61 -122 0
-61 -123 0
-61 -128 0
-61 -134 0
-61 -157 0
-61 -158 0
-61 -163 0
-61 -169 0
-61 -199 0
-62 -91 0
-62 -92 0
-62 -95 0
-62 -96 0
-62 -99 0
-62 -102 0
-62 -121 0
-62 -124 0
-62 -127 0
-62 -133 0
-62 -156 0
-62 -159 0
-62 -162 0
-62 -168 0
-62 -198 0
-63 -91 0
-63 -92 0
-63 -94 0
-63 -96 0
-63 -98 0
-63 -101 0
-63 -121 0
-63 -123 0
-63 -126 0
-63 -132 0
-63 -156 0
-63 -158 0
-63 -161 0
-63 -167 0
-63 -197 0
-64 -91 0
-64 -92 0
-64 -93 0
-64 -96 0
-64 -97 0
-64 -100 0
-64 -121 0
-64 -122 0
-64 -125 0
-64 -131 0
-64 -156 0
-64 -157 0
-64 -160 0
-64 -166 0
-64 -196 0
-65 -88 0
-65 -89 0
-65 -90 0
-65 -103 0
-65 -104 0
-65 -105 0
-65 -118 0
-65 -119 0
-65 -120 0
-65 -140 0
-65 -153 0
-65 -154 0
-65 -155 0
-65 -175 0
-65 -195 0
-66 -87 0
-66 -89 0
-66 -90 0
-66 -101 0
-66 -102 0
-66 -105 0
-66 -116 0
-66 -117 0
-66 -120 0
-66 -139 0
-66 -151 0
-66 -152 0
-66 -155 0
-66 -174 0
-66 -194 0
-67 -87 0
-67 -88 0
-67 -90 0
-67 -100 0
-67 -102 0
-67 -104 0
-67 -115 0
-67 -117 0
-67 -119 0
-67 -138 0
-67 -150 0
-67 -152 0
-67 -154 0
-67 -173 0
-67 -193 0
-68 -87 0
-68 -88 0
-68 -89 0
-68 -100 0
-68 -101 0
-68 -103 0
-68 -115 0
-68 -116 0
-68 -118 0
-68 -137 0
-68 -150 0
-68 -151 0
-68 -153 0
-68 -172 0
-68 -192 0
-69 -86 0
-69 -89 0
-69 -90 0
-69 -98 0
-69 -99 0
-69 -105 0
-69 -113 0
-69 -114 0
-69 -120 0
-69 -136 0
-69 -148 0
-69 -149 0
-69 -155 0
-69 -171 0
-69 -191 0
-70 -86 0
-70 -88 0
-70 -90 0
-70 -97 0
-70 -99 0
-70 -104 0
-70 -112 0
-70 -114 0
-70 -119 0
-70 -135 0
-70 -147 0
-70 -149 0
-70 -154 0
-70 -170 0
-70 -190 0
-71 -86 0
-71 -88 0
-71 -89 0
-71 -97 0
-71 -98 0
-71 -103 0
-71 -112 0
-71 -113 0
-71 -118 0
-71 -134 0
-71 -147 0
-71 -148 0
-71 -153 0
-71 -169 0
-71 -189 0
-72 -86 0
-72 -87 0
-72 -90 0
-72 -96 0
-72 -99 0
-72 -102 0
-72 -111 0
-72 -114 0
-72 -117 0
-72 -133 0
-72 -146 0
-72 -149 0
-72 -152 0
-72 -168 0
-72 -188 0
-73 -86 0
-73 -87 0
-73 -89 0
-73 -96 0
-73 -98 0
-73 -101 0
-73 -111 0
-73 -113 0
-73 -116 0
-73 -132 0
-73 -146 0
-73 -148 0
-73 -151 0
-73 -167 0
-73 -187 0
-74 -86 0
-74 -87 0
-74 -88 0
-74 -96 0
-74 -97 0
-74 -100 0
-74 -111 0
-74 -112 0
-74 -115 0
-74 -131 0
-74 -146 0
-74 -147 0
-74 -150 0
-74 -166 0
-74 -186 0
-75 -85 0
-75 -89 0
-75 -90 0
-75 -94 0
-75 -95 0
-75 -105 0
-75 -109 0
-75 -110 0
-75 -120 0
-75 -130 0
-75 -144 0
-75 -145 0
-75 -155 0
-75 -165 0
-75 -185 0
-76 -85 0
-76 -88 0
-76 -90 0
-76 -93 0
-76 -95 0
-76 -104 0
-76 -108 0
-76 -110 0
-76 -119 0
-76 -129 0
-76 -143 0
-76 -145 0
-76 -154 0
-76 -164 0
-76 -184 0
-77 -85 0
-77 -88 0
-77 -89 0
-77 -93 0
-77 -94 0
-77 -103 0
-77 -108 0
-77 -109 0
-77 -118 0
-77 -128 0
-77 -143 0
-77 -144 0
-77 -153 0
-77 -163 0
-77 -183 0
-78 -85 0
-78 -87 0
-78 -90 0
-78 -92 0
-78 -95 0
-78 -102 0
-78 -107 0
-78 -110 0
-78 -117 0
-78 -127 0
-78 -142 0
-78 -145 0
-78 -152 0
-78 -162 0
-78 -182 0
-79 -85 0
-79 -87 0
-79 -89 0
-79 -92 0
-79 -94 0
-79 -101 0
-79 -107 0
-79 -109 0
-79 -116 0
-79 -126 0
-79 -142 0
-79 -144 0
-79 -151 0
-79 -161 0
-79 -181 0
-80 -85 0
-80 -87 0
-80 -88 0
-80 -92 0
-80 -93 0
-80 -100 0
-80 -107 0
-80 -108 0
-80 -115 0
-80 -125 0
-80 -142 0
-80 -143 0
-80 -150 0
-80 -160 0
-80 -180 0
-81 -85 0
-81 -86 0
-81 -90 0
-81 -91 0
-81 -95 0
-81 -99 0
-81 -106 0
-81 -110 0
-81 -114 0
-81 -124 0
-81 -141 0
-81 -145 0
-81 -149 0
-81 -159 0
-81 -179 0
-82 -85 0
-82 -86 0
-82 -89 0
-82 -91 0
-82 -94 0
-82 -98 0
-82 -106 0
-82 -109 0
-82 -113 0
-82 -123 0
-82 -141 0
-82 -144 0
-82 -148 0
-82 -158 0
-82 -178 0
-83 -85 0
-83 -86 0
-83 -88 0
-83 -91 0
-83 -93 0
-83 -97 0
-83 -106 0
-83 -108 0
-83 -112 0
-83 -122 0
-83 -141 0
-83 -143 0
-83 -147 0
-83 -157 0
-83 -177 0
-84 -85 0
-84 -86 0
-84 -87 0
-84 -91 0
-84 -92 0
-84 -96 0
-84 -106 0
-84 -107 0
-84 -111 0
-84 -121 0
-84 -141 0
-84 -142 0
-84 -146 0
-84 -156 0
-84 -176 0
-85 -206 0
-85 -207 0
-85 -208 0
-85 -209 0
-85 -210 0
-86 -202 0
-86 -203 0
-86 -204 0
-86 -205 0
-86 -210 0
-87 -199 0
-87 -200 0
-87 -201 0
-87 -205 0
-87 -209 0
-88 -197 0
-88 -198 0
-88 -201 0
-88 -204 0
-88 -208 0
-89 -196 0
-89 -198 0
-89 -200 0
-89 -203 0
-89 -207 0
-90 -196 0
-90 -197 0
-90 -199 0
-90 -202 0
-90 -206 0
-91 -192 0
-91 -193 0
-91 -194 0
-91 -195 0
-91 -210 0
-92 -189 0
-92 -190 0
-92 -191 0
-92 -195 0
-92 -209 0
-93 -187 0
-93 -188 0
-93 -191 0
-93 -194 0
-93 -208 0
-94 -186 0
-94 -188 0
-94 -190 0
-94 -193 0
-94 -207 0
-95 -186 0
-95 -187 0
-95 -189 0
-95 -192 0
-95 -206 0
-96 -183 0
-96 -184 0
-96 -185 0
-96 -195 0
-96 -205 0
-97 -181 0
-97 -182 0
-97 -185 0
-97 -194 0
-97 -204 0
-98 -180 0
-98 -182 0
-98 -184 0
-98 -193 0
-98 -203 0
-99 -180 0
-99 -181 0
-99 -183 0
-99 -192 0
-99 -202 0
-100 -178 0
-100 -179 0
-100 -185 0
-100 -191 0
-100 -201 0
-101 -177 0
-101 -179 0
-101 -184 0
-101 -190 0
-101 -200 0
-102 -177 0
-102 -178 0
-102 -183 0
-102 -189 0
-102 -199 0
-103 -176 0
-103 -179 0
-103 -182 0
-103 -188 0
-103 -198 0
-104 -176 0
-104 -178 0
-104 -181 0
-104 -187 0
-104 -197 0
-105 -176 0
-105 -177 0
-105 -180 0
-105 -186 0
-105 -196 0
-106 -172 0
-106 -173 0
-106 -174 0
-106 -175 0
-106 -210 0
-107 -169 0
-107 -170 0
-107 -171 0
-107 -175 0
-107 -209 0
-108 -167 0
-108 -168 0
-108 -171 0
-108 -174 0
-108 -208 0
-109 -166 0
-109 -168 0
-109 -170 0
-109 -173 0
-109 -207 0
-110 -166 0
-110 -167 0
-110 -169 0
-110 -172 0
-110 -206 0
-111 -163 0
-111 -164 0
-111 -165 0
-111 -175 0
-111 -205 0
-112 -161 0
-112 -162 0
-112 -165 0
-112 -174 0
-112 -204 0
-113 -160 0
-113 -162 0
-113 -164 0
-113 -173 0
-113 -203 0
-114 -160 0
-114 -161 0
-114 -163 0
-114 -172 0
-114 -202 0
-115 -158 0
-115 -159 0
-115 -165 0
-115 -171 0
-115 -201 0
-116 -157 0
-116 -159 0
-116 -164 0
-116 -170 0
-116 -200 0
-117 -157 0
-117 -158 0
-117 -163 0
-117 -169 0
-117 -199 0
-118 -156 0
-118 -159 0
-118 -162 0
-118 -168 0
-118 -198 0
-119 -156 0
-119 -158 0
-119 -161 0
-119 -167 0
-119 -197 0
-120 -156 0
-120 -157 0
-120 -160 0
-120 -166 0
-120 -196 0
-121 -153 0
-121 -154 0
-121 -155 0
-121 -175 0
-121 -195 0
-122 -151 0
-122 -152 0
-122 -155 0
-122 -174 0
-122 -194 0
-123 -150 0
-123 -152 0
-123 -154 0
-123 -173 0
-123 -193 0
-124 -150 0
-124 -151 0
-124 -153 0
-124 -172 0
-124 -192 0
-125 -148 0
-125 -149 0
-125 -155 0
-125 -171 0
-125 -191 0
-126 -147 0
-126 -149 0
-126 -154 0
-126 -170 0
-126 -190 0
-127 -147 0
-127 -148 0
-127 -153 0
-127 -169 0
-127 -189 0
-128 -146 0
-128 -149 0
-128 -152 0
-128 -168 0
-128 -188 0
-129 -146 0
-129 -148 0
-129 -151 0
-129 -167 0
-129 -187 0
-130 -146 0
-130 -147 0
-130 -150 0
-130 -166 0
-130 -186 0
-131 -144 0
-131 -145 0
-131 -155 0
-131 -165 0
-131 -185 0
-132 -143 0
-132 -145 0
-132 -154 0
-132 -164 0
-132 -184 0
-133 -143 0
-133 -144 0
-133 -153 0
-133 -163 0
-133 -183 0
-134 -142 0
-134 -145 0
-134 -152 0
-134 -162 0
-134 -182 0
-135 -142 0
-135 -144 0
-135 -151 0
-135 -161 0
-135 -181 0
-136 -142 0
-136 -143 0
-136 -150 0
-136 -160 0
-136 -180 0
-137 -141 0
-137 -145 0
-137 -149 0
-137 -159 0
-137 -179 0
-138 -141 0
-138 -144 0
-138 -148 0
-138 -158 0
-138 -178 0
-139 -141 0
-139 -143 0
-139 -147 0
-139 -157 0
-139 -177 0
-140 -141 0
-140 -142 0
-140 -146 0
-140 -156 0
-140 -176 0
-141 -210 0
-142 -209 0
-143 -208 0
-144 -207 0
-145 -206 0
-146 -205 0
-147 -204 0
-148 -203 0
-149 -202 0
-150 -201 0
-151 -200 0
-152 -199 0
-153 -198 0
-154 -197 0
-155 -196 0
-156 -195 0
-157 -194 0
-158 -193 0
-159 -192 0
-160 -191 0
-161 -190 0
-162 -189 0
-163 -188 0
-164 -187 0
-165 -186 0
-166 -185 0
-167 -184 0
-168 -183 0
-169 -182 0
-170 -181 0
-171 -180 0
-172 -179 0
-173 -178 0
-174 -177 0
-175 -176 0
-211 1 0
-211 2 0
-212 1 0
-212 3 0
-213 1 0
-213 4 0
-214 1 0
-214 5 0
-215 1 0
-215 6 0
-216 1 0
-216 7 0
-217 2 0
-217 3 0
-218 2 0
-218 4 0
-219 2 0
-219 5 0
-220 2 0
-220 6 0
-221 2 0
-221 7 0
-222 3 0
-222 4 0
-223 3 0
-223 5 0
-224 3 0
-224 6 0
-225 3 0
-225 7 0
-226 4 0
-226 5 0
-227 4 0
-227 6 0
-228 4 0
-228 7 0
-229 5 0
-229 6 0
-230 5 0
-230 7 0
-231 6 0
-231 7 0
211 212 213 214 215 216 217 218 219 220 221 222 223 224 225 226 227 228 229 230 231 0
-232 1 0
-232 8 0
-233 1 0
-233 9 0
-234 1 0
-234 10 0
-235 1 0
-235 11 0
-236 1 0
-236 12 0
-237 1 0
-237 13 0
-238 8 0
-238 9 0
-239 8 0
-239 10 0
-240 8 0
-240 11 0
-241 8 0
-241 12 0
-242 8 0
-242 13 0
-243 9 0
-243 10 0
-244 9 0
-244 11 0
-245 9 0
-245 12 0
-246 9 0
-246 13 0
-247 10 0
-247 11 0
-248 10 0
-248 12 0
-249 10 0
-249 13 0
-250 11 0
-250 12 0
-251 11 0
-251 13 0
-252 12 0
-252 13 0
232 233 234 235 236 237 238 239 240 241 242 243 244 245 246 247 248 249 250 251 252 0
-253 2 0
-253 8 0
-254 2 0
-254 14 0
-255 2 0
-255 15 0
-256 2 0
-256 16 0
-257 2 0
-257 17 0
-258 2 0
-258 18 0
-259 8 0
-259 14 0
-260 8 0
-260 15 0
-261 8 0
-261 16 0
-262 8 0
-262 17 0
-263 8 0
-263 18 0
-264 14 0
-264 15 0
-265 14 0
-265 16 0
-266 14 0
-266 17 0
-267 14 0
-267 18 0
-268 15 0
-268 16 0
-269 15 0
-269 17 0
-270 15 0
-270 18 0
-271 16 0
-271 17 0
-272 16 0
-272 18 0
-273 17 0
-273 18 0
253 254 255 256 257 258 259 260 261 262 263 264 265 266 267 268 269 270 271 272 273 0
-274 3 0
-274 9 0
-275 3 0
-275 14 0
-276 3 0
-276 19 0
-277 3 0
-277 20 0
-278 3 0
-278 21 0
-279 3 0
-279 22 0
-280 9 0
-280 14 0
-281 9 0
-281 19 0
-282 9 0
-282 20 0
-283 9 0
-283 21 0
-284 9 0
-284 22 0
-285 14 0
-285 19 0
-286 14 0
-286 20 0
-287 14 0
-287 21 0
-288 14 0
-288 22 0
-289 19 0
-289 20 0
-290 19 0
-290 21 0
-291 19 0
-291 22 0
-292 20 0
-292 21 0
-293 20 0
-293 22 0
-294 21 0
-294 22 0
274 275 276 277 278 279 280 281 282 283 284 285 286 287 288 289 290 291 292 293 294 0
-295 4 0
-295 10 0
-296 4 0
-296 15 0
-297 4 0
-297 19 0
-298 4 0
-298 23 0
-299 4 0
-299 24 0
-300 4 0
-300 25 0
-301 10 0
-301 15 0
-302 10 0
-302 19 0
-303 10 0
-303 23 0
-304 10 0
-304 24 0
-305 10 0
-305 25 0
-306 15 0
-306 19 0
-307 15 0
-307 23 0
-308 15 0
-308 24 0
-309 15 0
-309 25 0
-310 19 0
-310 23 0
-311 19 0
-311 24 0
-312 19 0
-312 25 0
-313 23 0
-313 24 0
-314 23 0
-314 25 0
-315 24 0
-315 25 0
295 296 297 298 299 300 301 302 303 304 305 306 307 308 309 310 311 312 313 314 315 0
-316 5 0
-316 11 0
-317 5 0
-317 16 0
-318 5 0
-318 20 0
-319 5 0
-319 23 0
-320 5 0
-320 26 0
-321 5 0
-321 27 0
-322 11 0
-322 16 0
-323 11 0
-323 20 0
-324 11 0
-324 23 0
-325 11 0
-325 26 0
-326 11 0
-326 27 0
-327 16 0
-327 20 0
-328 16 0
-328 23 0
-329 16 0
-329 26 0
-330 16 0
-330 27 0
-331 20 0
-331 23 0
-332 20 0
-332 26 0
-333 20 0
-333 27 0
-334 23 0
-334 26 0
-335 23 0
-335 27 0
-336 26 0
-336 27 0
316 317 318 319 320 321 322 323 324 325 326 327 328 329 330 331 332 333 334 335 336 0
-337 6 0
-337 12 0
-338 6 0
-338 17 0
-339 6 0
-339 21 0
-340 6 0
-340 24 0
-341 6 0
-341 26 0
-342 6 0
-342 28 0
-343 12 0
-343 17 0
-344 12 0
-344 21 0
-345 12 0
-345 24 0
-346 12 0
-346 26 0
-347 12 0
-347 28 0
-348 17 0
-348 21 0
-349 17 0
-349 24 0
-350 17 0
-350 26 0
-351 17 0
-351 28 0
-352 21 0
-352 24 0
-353 21 0
-353 26 0
-354 21 0
-354 28 0
-355 24 0
-355 26 0
-356 24 0
-356 28 0
-357 26 0
-357 28 0
337 338 339 340 341 342 343 344 345 346 347 348 349 350 351 352 353 354 355 356 357 0
-358 7 0
-358 13 0
-359 7 0
-359 18 0
-360 7 0
-360 22 0
-361 7 0
-361 25 0
-362 7 0
-362 27 0
-363 7 0
-363 28 0
-364 13 0
-364 18 0
-365 13 0
-365 22 0
-366 13 0
-366 25 0
-367 13 0
-367 27 0
-368 13 0
-368 28 0
-369 18 0
-369 22 0
-370 18 0
-370 25 0
-371 18 0
-371 27 0
-372 18 0
-372 28 0
-373 22 0
-373 25 0
-374 22 0
-374 27 0
-375 22 0
-375 28 0
-376 25 0
-376 27 0
-377 25 0
-377 28 0
-378 27 0
-378 28 0
358 359 360 361 362 363 364 365 366 367 368 369 370 371 372 373 374 375 376 377 378 0
-379 1 0
-379 29 0
-380 1 0
-380 30 0
-381 1 0
-381 31 0
-382 1 0
-382 32 0
-383 1 0
-383 33 0
-384 1 0
-384 34 0
-385 29 0
-385 30 0
-386 29 0
-386 31 0
-387 29 0
-387 32 0
-388 29 0
-388 33 0
-389 29 0
-389 34 0
-390 30 0
-390 31 0
-391 30 0
-391 32 0
-392 30 0
-392 33 0
-393 30 0
-393 34 0
-394 31 0
-394 32 0
-395 31 0
-395 33 0
-396 31 0
-396 34 0
-397 32 0
-397 33 0
-398 32 0
-398 34 0
-399 33 0
-399 34 0
379 380 381 382 383 384 385 386 387 388 389 390 391 392 393 394 395 396 397 398 399 0
-400 2 0
-400 29 0
-401 2 0
-401 35 0
-402 2 0
-402 36 0
-403 2 0
-403 37 0
-404 2 0
-404 38 0
-405 2 0
-405 39 0
-406 29 0
-406 35 0
-407 29 0
-407 36 0
-408 29 0
-408 37 0
-409 29 0
-409 38 0
-410 29 0
-410 39 0
-411 35 0
-411 36 0
-412 35 0
-412 37 0
-413 35 0
-413 38 0
-414 35 0
-414 39 0
-415 36 0
-415 37 0
-416 36 0
-416 38 0
-417 36 0
-417 39 0
-418 37 0
-418 38 0
-419 37 0
-419 39 0
-420 38 0
-420 39 0
400 401 402 403 404 405 406 407 408 409 410 411 412 413 414 415 416 417 418 419 420 0
-421 3 0
-421 30 0
-422 3 0
-422 35 0
-423 3 0
-423 40 0
-424 3 0
-424 41 0
-425 3 0
-425 42 0
-426 3 0
-426 43 0
-427 30 0
-427 35 0
-428 30 0
-428 40 0
-429 30 0
-429 41 0
-430 30 0
-430 42 0
-431 30 0
-431 43 0
-432 35 0
-432 40 0
-433 35 0
-433 41 0
-434 35 0
-434 42 0
-435 35 0
-435 43 0
-436 40 0
-436 41 0
-437 40 0
-437 42 0
-438 40 0
-438 43 0
-439 41 0
-439 42 0
-440 41 0
-440 43 0
-441 42 0
-441 43 0
421 422 423 424 425 426 427 428 429 430 431 432 433 434 435 436 437 438 439 440 441 0
-442 4 0
-442 31 0
-443 4 0
-443 36 0
-444 4 0
-444 40 0
-445 4 0
-445 44 0
-446 4 0
-446 45 0
-447 4 0
-447 46 0
-448 31 0
-448 36 0
-449 31 0
-449 40 0
-450 31 0
-450 44 0
-451 31 0
-451 45 0
-452 31 0
-452 46 0
-453 36 0
-453 40 0
-454 36 0
-454 44 0
-455 36 0
-455 45 0
-456 36 0
-456 46 0
-457 40 0
-457 44 0
-458 40 0
-458 45 0
-459 40 0
-459 46 0
-460 44 0
-460 45 0
-461 44 0
-461 46 0
-462 45 0
-462 46 0
442 443 444 445 446 447 448 449 450 451 452 453 454 455 456 457 458 459 460 461 462 0
-463 5 0
-463 32 0
-464 5 0
-464 37 0
-465 5 0
-465 41 0
-466 5 0
-466 44 0
-467 5 0
-467 47 0
-468 5 0
-468 48 0
-469 32 0
-469 37 0
-470 32 0
-470 41 0
-471 32 0
-471 44 0
-472 32 0
-472 47 0
-473 32 0
-473 48 0
-474 37 0
-474 41 0
-475 37 0
-475 44 0
-476 37 0
-476 47 0
-477 37 0
-477 48 0
-478 41 0
-478 44 0
-479 41 0
-479 47 0
-480 41 0
-480 48 0
-481 44 0
-481 47 0
-482 44 0
-482 48 0
-483 47 0
-483 48 0
463 464 465 466 467 468 469 470 471 472 473 474 475 476 477 478 479 480 481 482 483 0
-484 6 0
-484 33 0
-485 6 0
-485 38 0
-486 6 0
-486 42 0
-487 6 0
-487 45 0
-488 6 0
-488 47 0
-489 6 0
-489 49 0
-490 33 0
-490 38 0
-491 33 0
-491 42 0
-492 33 0
-492 45 0
-493 33 0
-493 47 0
-494 33 0
-494 49 0
-495 38 0
-495 42 0
-496 38 0
-496 45 0
-497 38 0
-497 47 0
-498 38 0
-498 49 0
-499 42 0
-499 45 0
-500 42 0
-500 47 0
-501 42 0
-501 49 0
-502 45 0
-502 47 0
-503 45 0
-503 49 0
-504 47 0
-504 49 0
484 485 486 487 488 489 490 491 492 493 494 495 496 497 498 499 500 501 502 503 504 0
-505 7 0
-505 34 0
-506 7 0
-506 39 0
-507 7 0
-507 43 0
-508 7 0
-508 46 0
-509 7 0
-509 48 0
-510 7 0
-510 49 0
-511 34 0
-511 39 0
-512 34 0
-512 43 0
-513 34 0
-513 46 0
-514 34 0
-514 48 0
-515 34 0
-515 49 0
-516 39 0
-516 43 0
-517 39 0
-517 46 0
-518 39 0
-518 48 0
-519 39 0
-519 49 0
-520 43 0
-520 46 0
-521 43 0
-521 48 0
-522 43 0
-522 49 0
-523 46 0
-523 48 0
-524 46 0
-524 49 0
-525 48 0
-525 49 0
505 506 507 508 509 510 511 512 513 514 515 516 517 518 519 520 521 522 523 524 525 0
-526 8 0
-526 29 0
-527 8 0
-527 50 0
-528 8 0
-528 51 0
-529 8 0
-529 52 0
-530 8 0
-530 53 0
-531 8 0
-531 54 0
-532 29 0
-532 50 0
-533 29 0
-533 51 0
-534 29 0
-534 52 0
-535 29 0
-535 53 0
-536 29 0
-536 54 0
-537 50 0
-537 51 0
-538 50 0
-538 52 0
-539 50 0
-539 53 0
-540 50 0
-540 54 0
-541 51 0
-541 52 0
-542 51 0
-542 53 0
-543 51 0
-543 54 0
-544 52 0
-544 53 0
-545 52 0
-545 54 0
-546 53 0
-546 54 0
526 527 528 529 530 531 532 533 534 535 536 537 538 539 540 541 542 543 544 545 546 0
-547 9 0
-547 30 0
-548 9 0
-548 50 0
-549 9 0
-549 55 0
-550 9 0
-550 56 0
-551 9 0
-551 57 0
-552 9 0
-552 58 0
-553 30 0
-553 50 0
-554 30 0
-554 55 0
-555 30 0
-555 56 0
-556 30 0
-556 57 0
-557 30 0
-557 58 0
-558 50 0
-558 55 0
-559 50 0
-559 56 0
-560 50 0
-560 57 0
-561 50 0
-561 58 0
-562 55 0
-562 56 0
-563 55 0
-563 57 0
-564 55 0
-564 58 0
-565 56 0
-565 57 0
-566 56 0
-566 58 0
-567 57 0
-567 58 0
547 548 549 550 551 552 553 554 555 556 557 558 559 560 561 562 563 564 565 566 567 0
-568 10 0
-568 31 0
-569 10 0
-569 51 0
-570 10 0
-570 55 0
-571 10 0
-571 59 0
-572 10 0
-572 60 0
-573 10 0
-573 61 0
-574 31 0
-574 51 0
-575 31 0
-575 55 0
-576 31 0
-576 59 0
-577 31 0
-577 60 0
-578 31 0
-578 61 0
-579 51 0
-579 55 0
-580 51 0
-580 59 0
-581 51 0
-581 60 0
-582 51 0
-582 61 0
-583 55 0
-583 59 0
-584 55 0
-584 60 0
-585 55 0
-585 61 0
-586 59 0
-586 60 0
-587 59 0
-587 61 0
-588 60 0
-588 61 0
568 569 570 571 572 573 574 575 576 577 578 579 580 581 582 583 584 585 586 587 588 0
-589 11 0
-589 32 0
-590 11 0
-590 52 0
-591 11 0
-591 56 0
-592 11 0
-592 59 0
-593 11 0
-593 62 0
-594 11 0
-594 63 0
-595 32 0
-595 52 0
-596 32 0
-596 56 0
-597 32 0
-597 59 0
-598 32 0
-598 62 0
-599 32 0
-599 63 0
-600 52 0
-600 56 0
-601 52 0
-601 59 0
-602 52 0
-602 62 0
-603 52 0
-603 63 0
-604 56 0
-604 59 0
-605 56 0
-605 62 0
-606 56 0
-606 63 0
-607 59 0
-607 62 0
-608 59 0
-608 63 0
-609 62 0
-609 63 0
589 590 591 592 593 594 595 596 597 598 599 600 601 602 603 604 605 606 607 608 609 0
-610 12 0
-610 33 0
-611 12 0
-611 53 0
-612 12 0
-612 57 0
-613 12 0
-613 60 0
-614 12 0
-614 62 0
-615 12 0
-615 64 0
-616 33 0
-616 53 0
-617 33 0
-617 57 0
-618 33 0
-618 60 0
-619 33 0
-619 62 0
-620 33 0
-620 64 0
-621 53 0
-621 57 0
-622 53 0
-622 60 0
-623 53 0
-623 62 0
-624 53 0
-624 64 0
-625 57 0
-625 60 0
-626 57 0
-626 62 0
-627 57 0
-627 64 0
-628 60 0
-628 62 0
-629 60 0
-629 64 0
-630 62 0
-630 64 0
610 611 612 613 614 615 616 617 618 619 620 621 622 623 624 625 626 627 628 629 630 0
-631 13 0
-631 34 0
-632 13 0
-632 54 0
-633 13 0
-633 58 0
-634 13 0
-634 61 0
-635 13 0
-635 63 0
-636 13 0
-636 64 0
-637 34 0
-637 54 0
-638 34 0
-638 58 0
-639 34 0
-639 61 0
-640 34 0
-640 63 0
-641 34 0
-641 64 0
-642 54 0
-642 58 0
-643 54 0
-643 61 0
-644 54 0
-644 63 0
-645 54 0
-645 64 0
-646 58 0
-646 61 0
-647 58 0
-647 63 0
-648 58 0
-648 64 0
-649 61 0
-649 63 0
-650 61 0
-650 64 0
-651 63 0
-651 64 0
631 632 633 634 635 636 637 638 639 640 641 642 643 644 645 646 647 648 649 650 651 0
-652 14 0
-652 35 0
-653 14 0
-653 50 0
-654 14 0
-654 65 0
-655 14 0
-655 66 0
-656 14 0
-656 67 0
-657 14 0
-657 68 0
-658 35 0
-658 50 0
-659 35 0
-659 65 0
-660 35 0
-660 66 0
-661 35 0
-661 67 0
-662 35 0
-662 68 0
-663 50 0
-663 65 0
-664 50 0
-664 66 0
-665 50 0
-665 67 0
-666 50 0
-666 68 0
-667 65 0
-667 66 0
-668 65 0
-668 67 0
-669 65 0
-669 68 0
-670 66 0
-670 67 0
-671 66 0
-671 68 0
-672 67 0
-672 68 0
652 653 654 655 656 657 658 659 660 661 662 663 664 665 666 667 668 669 670 671 672 0
-673 15 0
-673 36 0
-674 15 0
-674 51 0
-675 15 0
-675 65 0
-676 15 0
-676 69 0
-677 15 0
-677 70 0
-678 15 0
-678 71 0
-679 36 0
-679 51 0
-680 36 0
-680 65 0
-681 36 0
-681 69 0
-682 36 0
-682 70 0
-683 36 0
-683 71 0
-684 51 0
-684 65 0
-685 51 0
-685 69 0
-686 51 0
-686 70 0
-687 51 0
-687 71 0
-688 65 0
-688 69 0
-689 65 0
-689 70 0
-690 65 0
-690 71 0
-691 69 0
-691 70 0
-692 69 0
-692 71 0
-693 70 0
-693 71 0
673 674 675 676 677 678 679 680 681 682 683 684 685 686 687 688 689 690 691 692 693 0
-694 16 0
-694 37 0
-695 16 0
-695 52 0
-696 16 0
-696 66 0
-697 16 0
-697 69 0
-698 16 0
-698 72 0
-699 16 0
-699 73 0
-700 37 0
-700 52 0
-701 37 0
-701 66 0
-702 37 0
-702 69 0
-703 37 0
-703 72 0
-704 37 0
-704 73 0
-705 52 0
-705 66 0
-706 52 0
-706 69 0
-707 52 0
-707 72 0
-708 52 0
-708 73 0
-709 66 0
-709 69 0
-710 66 0
-710 72 0
-711 66 0
-711 73 0
-712 69 0
-712 72 0
-713 69 0
-713 73 0
-714 72 0
-714 73 0
694 695 696 697 698 699 700 701 702 703 704 705 706 707 708 709 710 711 712 713 714 0
-715 17 0
-715 38 0
-716 17 0
-716 53 0
-717 17 0
-717 67 0
-718 17 0
-718 70 0
-719 17 0
-719 72 0
-720 17 0
-720 74 0
-721 38 0
-721 53 0
-722 38 0
-722 67 0
-723 38 0
-723 70 0
-724 38 0
-724 72 0
-725 38 0
-725 74 0
-726 53 0
-726 67 0
-727 53 0
-727 70 0
-728 53 0
-728 72 0
-729 53 0
-729 74 0
-730 67 0
-730 70 0
-731 67 0
-731 72 0
-732 67 0
-732 74 0
-733 70 0
-733 72 0
-734 70 0
-734 74 0
-735 72 0
-735 74 0
715 716 717 718 719 720 721 722 723 724 725 726 727 728 729 730 731 732 733 734 735 0
-736 18 0
-736 39 0
-737 18 0
-737 54 0
-738 18 0
-738 68 0
-739 18 0
-739 71 0
-740 18 0
-740 73 0
-741 18 0
-741 74 0
-742 39 0
-742 54 0
-743 39 0
-743 68 0
-744 39 0
-744 71 0
-745 39 0
-745 73 0
-746 39 0
-746 74 0
-747 54 0
-747 68 0
-748 54 0
-748 71 0
-749 54 0
-749 73 0
-750 54 0
-750 74 0
-751 68 0
-751 71 0
-752 68 0
-752 73 0
-753 68 0
-753 74 0
-754 71 0
-754 73 0
-755 71 0
-755 74 0
-756 73 0
-756 74 0
736 737 738 739 740 741 742 743 744 745 746 747 748 749 750 751 752 753 754 755 756 0
-757 19 0
-757 40 0
-758 19 0
-758 55 0
-759 19 0
-759 65 0
-760 19 0
-760 75 0
-761 19 0
-761 76 0
-762 19 0
-762 77 0
-763 40 0
-763 55 0
-764 40 0
-764 65 0
-765 40 0
-765 75 0
-766 40 0
-766 76 0
-767 40 0
-767 77 0
-768 55 0
-768 65 0
-769 55 0
-769 75 0
-770 55 0
-770 76 0
-771 55 0
-771 77 0
-772 65 0
-772 75 0
-773 65 0
-773 76 0
-774 65 0
-774 77 0
-775 75 0
-775 76 0
-776 75 0
-776 77 0
-777 76 0
-777 77 0
757 758 759 760 761 762 763 764 765 766 767 768 769 770 771 772 773 774 775 776 777 0
-778 20 0
-778 41 0
-779 20 0
-779 56 0
-780 20 0
-780 66 0
-781 20 0
-781 75 0
-782 20 0
-782 78 0
-783 20 0
-783 79 0
-784 41 0
-784 56 0
-785 41 0
-785 66 0
-786 41 0
-786 75 0
-787 41 0
-787 78 0
-788 41 0
-788 79 0
-789 56 0
-789 66 0
-790 56 0
-790 75 0
-791 56 0
-791 78 0
-792 56 0
-792 79 0
-793 66 0
-793 75 0
-794 66 0
-794 78 0
-795 66 0
-795 79 0
-796 75 0
-796 78 0
-797 75 0
-797 79 0
-798 78 0
-798 79 0
778 779 780 781 782 783 784 785 786 787 788 789 790 791 792 793 794 795 796 797 798 0
-799 21 0
-799 42 0
-800 21 0
-800 57 0
-801 21 0
-801 67 0
-802 21 0
-802 76 0
-803 21 0
-803 78 0
-804 21 0
-804 80 0
-805 42 0
-805 57 0
-806 42 0
-806 67 0
-807 42 0
-807 76 0
-808 42 0
-808 78 0
-809 42 0
-809 80 0
-810 57 0
-810 67 0
-811 57 0
-811 76 0
-812 57 0
-812 78 0
-813 57 0
-813 80 0
-814 67 0
-814 76 0
-815 67 0
-815 78 0
-816 67 0
-816 80 0
-817 76 0
-817 78 0
-818 76 0
-818 80 0
-819 78 0
-819 80 0
799 800 801 802 803 804 805 806 807 808 809 810 811 812 813 814 815 816 817 818 819 0
-820 22 0
-820 43 0
-821 22 0
-821 58 0
-822 22 0
-822 68 0
-823 22 0
-823 77 0
-824 22 0
-824 79 0
-825 22 0
-825 80 0
-826 43 0
-826 58 0
-827 43 0
-827 68 0
-828 43 0
-828 77 0
-829 43 0
-829 79 0
-830 43 0
-830 80 0
-831 58 0
-831 68 0
-832 58 0
-832 77 0
-833 58 0
-833 79 0
-834 58 0
-834 80 0
-835 68 0
-835 77 0
-836 68 0
-836 79 0
-837 68 0
-837 80 0
-838 77 0
-838 79 0
-839 77 0
-839 80 0
-840 79 0
-840 80 0
820 821 822 823 824 825 826 827 828 829 830 831 832 833 834 835 836 837 838 839 840 0
-841 23 0
-841 44 0
-842 23 0
-842 59 0
-843 23 0
-843 69 0
-844 23 0
-844 75 0
-845 23 0
-845 81 0
-846 23 0
-846 82 0
-847 44 0
-847 59 0
-848 44 0
-848 69 0
-849 44 0
-849 75 0
-850 44 0
-850 81 0
-851 44 0
-851 82 0
-852 59 0
-852 69 0
-853 59 0
-853 75 0
-854 59 0
-854 81 0
-855 59 0
-855 82 0
-856 69 0
-856 75 0
-857 69 0
-857 81 0
-858 69 0
-858 82 0
-859 75 0
-859 81 0
-860 75 0
-860 82 0
-861 81 0
-861 82 0
841 842 843 844 845 846 847 848 849 850 851 852 853 854 855 856 857 858 859 860 861 0
-862 24 0
-862 45 0
-863 24 0
-863 60 0
-864 24 0
-864 70 0
-865 24 0
-865 76 0
-866 24 0
-866 81 0
-867 24 0
-867 83 0
-868 45 0
-868 60 0
-869 45 0
-869 70 0
-870 45 0
-870 76 0
-871 45 0
-871 81 0
-872 45 0
-872 83 0
-873 60 0
-873 70 0
-874 60 0
-874 76 0
-875 60 0
-875 81 0
-876 60 0
-876 83 0
-877 70 0
-877 76 0
-878 70 0
-878 81 0
-879 70 0
-879 83 0
-880 76 0
-880 81 0
-881 76 0
-881 83 0
-882 81 0
-882 83 0
862 863 864 865 866 867 868 869 870 871 872 873 874 875 876 877 878 879 880 881 882 0
-883 25 0
-883 46 0
-884 25 0
-884 61 0
-885 25 0
-885 71 0
-886 25 0
-886 77 0
-887 25 0
-887 82 0
-888 25 0
-888 83 0
-889 46 0
-889 61 0
-890 46 0
-890 71 0
-891 46 0
-891 77 0
-892 46 0
-892 82 0
-893 46 0
-893 83 0
-894 61 0
-894 71 0
-895 61 0
-895 77 0
-896 61 0
-896 82 0
-897 61 0
-897 83 0
-898 71 0
-898 77 0
-899 71 0
-899 82 0
-900 71 0
-900 83 0
-901 77 0
-901 82 0
-902 77 0
-902 83 0
-903 82 0
-903 83 0
883 884 885 886 887 888 889 890 891 892 893 894 895 896 897 898 899 900 901 902 903 0
-904 26 0
-904 47 0
-905 26 0
-905 62 0
-906 26 0
-906 72 0
-907 26 0
-907 78 0
-908 26 0
-908 81 0
-909 26 0
-909 84 0
-910 47 0
-910 62 0
-911 47 0
-911 72 0
-912 47 0
-912 78 0
-913 47 0
-913 81 0
-914 47 0
-914 84 0
-915 62 0
-915 72 0
-916 62 0
-916 78 0
-917 62 0
-917 81 0
-918 62 0
-918 84 0
-919 72 0
-919 78 0
-920 72 0
-920 81 0
-921 72 0
-921 84 0
-922 78 0
-922 81 0
-923 78 0
-923 84 0
-924 81 0
-924 84 0
904 905 906 907 908 909 910 911 912 913 914 915 916 917 918 919 920 921 922 923 924 0
-925 27 0
-925 48 0
-926 27 0
-926 63 0
-927 27 0
-927 73 0
-928 27 0
-928 79 0
-929 27 0
-929 82 0
-930 27 0
-930 84 0
-931 48 0
-931 63 0
-932 48 0
-932 73 0
-933 48 0
-933 79 0
-934 48 0
-934 82 0
-935 48 0
-935 84 0
-936 63 0
-936 73 0
-937 63 0
-937 79 0
-938 63 0
-938 82 0
-939 63 0
-939 84 0
-940 73 0
-940 79 0
-941 73 0
-941 82 0
-942 73 0
-942 84 0
-943 79 0
-943 82 0
-944 79 0
-944 84 0
-945 82 0
-945 84 0
925 926 927 928 929 930 931 932 933 934 935 936 937 938 939 940 941 942 943 944 945 0
-946 28 0
-946 49 0
-947 28 0
-947 64 0
-948 28 0
-948 74 0
-949 28 0
-949 80 0
-950 28 0
-950 83 0
-951 28 0
-951 84 0
-952 49 0
-952 64 0
-953 49 0
-953 74 0
-954 49 0
-954 80 0
-955 49 0
-955 83 0
-956 49 0
-956 84 0
-957 64 0
-957 74 0
-958 64 0
-958 80 0
-959 64 0
-959 83 0
-960 64 0
-960 84 0
-961 74 0
-961 80 0
-962 74 0
-962 83 0
-963 74 0
-963 84 0
-964 80 0
-964 83 0
-965 80 0
-965 84 0
-966 83 0
-966 84 0
946 947 948 949 950 951 952 953 954 955 956 957 958 959 960 961 962 963 964 965 966 0
-967 1 0
-967 85 0
-968 1 0
-968 86 0
-969 1 0
-969 87 0
-970 1 0
-970 88 0
-971 1 0
-971 89 0
-972 1 0
-972 90 0
-973 85 0
-973 86 0
-974 85 0
-974 87 0
-975 85 0
-975 88 0
-976 85 0
-976 89 0
-977 85 0
-977 90 0
-978 86 0
-978 87 0
-979 86 0
-979 88 0
-980 86 0
-980 89 0
-981 86 0
-981 90 0
-982 87 0
-982 88 0
-983 87 0
-983 89 0
-984 87 0
-984 90 0
-985 88 0
-985 89 0
-986 88 0
-986 90 0
-987 89 0
-987 90 0
967 968 969 970 971 972 973 974 975 976 977 978 979 980 981 982 983 984 985 986 987 0
-988 2 0
-988 85 0
-989 2 0
-989 91 0
-990 2 0
-990 92 0
-991 2 0
-991 93 0
-992 2 0
-992 94 0
-993 2 0
-993 95 0
-994 85 0
-994 91 0
-995 85 0
-995 92 0
-996 85 0
-996 93 0
-997 85 0
-997 94 0
-998 85 0
-998 95 0
-999 91 0
-999 92 0
-1000 91 0
-1000 93 0
-1001 91 0
-1001 94 0
-1002 91 0
-1002 95 0
-1003 92 0
-1003 93 0
-1004 92 0
-1004 94 0
-1005 92 0
-1005 95 0
-1006 93 0
-1006 94 0
-1007 93 0
-1007 95 0
-1008 94 0
-1008 95 0
988 989 990 991 992 993 994 995 996 997 998 999 1000 1001 1002 1003 1004 1005 1006 1007 1008 0
-1009 3 0
-1009 86 0
-1010 3 0
-1010 91 0
-1011 3 0
-1011 96 0
-1012 3 0
-1012 97 0
-1013 3 0
-1013 98 0
-1014 3 0
-1014 99 0
-1015 86 0
-1015 91 0
-1016 86 0
-1016 96 0
-1017 86 0
-1017 97 0
-1018 86 0
-1018 98 0
-1019 86 0
-1019 99 0
-1020 91 0
-1020 96 0
-1021 91 0
-1021 97 0
-1022 91 0
-1022 98 0
-1023 91 0
-1023 99 0
-1024 96 0
-1024 97 0
-1025 96 0
-1025 98 0
-1026 96 0
-1026 99 0
-1027 97 0
-1027 98 0
-1028 97 0
-1028 99 0
-1029 98 0
-1029 99 0
1009 1010 1011 1012 1013 1014 1015 1016 1017 1018 1019 1020 1021 1022 1023 1024 1025 1026 1027 1028 1029 0
-1030 4 0
-1030 87 0
-1031 4 0
-1031 92 0
-1032 4 0
-1032 96 0
-1033 4 0
-1033 100 0
-1034 4 0
-1034 101 0
-1035 4 0
-1035 102 0
-1036 87 0
-1036 92 0
-1037 87 0
-1037 96 0
-1038 87 0
-1038 100 0
-1039 87 0
-1039 101 0
-1040 87 0
-1040 102 0
-1041 92 0
-1041 96 0
-1042 92 0
-1042 100 0
-1043 92 0
-1043 101 0
-1044 92 0
-1044 102 0
-1045 96 0
-1045 100 0
-1046 96 0
-1046 101 0
-1047 96 0
-1047 102 0
-1048 100 0
-1048 101 0
-1049 100 0
-1049 102 0
-1050 101 0
-1050 102 0
1030 1031 1032 1033 1034 1035 1036 1037 1038 1039 1040 1041 1042 1043 1044 1045 1046 1047 1048 1049 1050 0
-1051 5 0
-1051 88 0
-1052 5 0
-1052 93 0
-1053 5 0
-1053 97 0
-1054 5 0
-1054 100 0
-1055 5 0
-1055 103 0
-1056 5 0
-1056 104 0
-1057 88 0
-1057 93 0
-1058 88 0
-1058 97 0
-1059 88 0
-1059 100 0
-1060 88 0
-1060 103 0
-1061 88 0
-1061 104 0
-1062 93 0
-1062 97 0
-1063 93 0
-1063 100 0
-1064 93 0
-1064 103 0
-1065 93 0
-1065 104 0
-1066 97 0
-1066 100 0
-1067 97 0
-1067 103 0
-1068 97 0
-1068 104 0
-1069 100 0
-1069 103 0
-1070 100 0
-1070 104 0
-1071 103 0
-1071 104 0
1051 1052 1053 1054 1055 1056 1057 1058 1059 1060 1061 1062 1063 1064 1065 1066 1067 1068 1069 1070 1071 0
-1072 6 0
-1072 89 0
-1073 6 0
-1073 94 0
-1074 6 0
-1074 98 0
-1075 6 0
-1075 101 0
-1076 6 0
-1076 103 0
-1077 6 0
-1077 105 0
-1078 89 0
-1078 94 0
-1079 89 0
-1079 98 0
-1080 89 0
-1080 101 0
-1081 89 0
-1081 103 0
-1082 89 0
-1082 105 0
-1083 94 0
-1083 98 0
-1084 94 0
-1084 101 0
-1085 94 0
-1085 103 0
-1086 94 0
-1086 105 0
-1087 98 0
-1087 101 0
-1088 98 0
-1088 103 0
-1089 98 0
-1089 105 0
-1090 101 0
-1090 103 0
-1091 101 0
-1091 105 0
-1092 103 0
-1092 105 0
1072 1073 1074 1075 1076 1077 1078 1079 1080 1081 1082 1083 1084 1085 1086 1087 1088 1089 1090 1091 1092 0
-1093 7 0
-1093 90 0
-1094 7 0
-1094 95 0
-1095 7 0
-1095 99 0
-1096 7 0
-1096 102 0
-1097 7 0
-1097 104 0
-1098 7 0
-1098 105 0
-1099 90 0
-1099 95 0
-1100 90 0
-1100 99 0
-1101 90 0
-1101 102 0
-1102 90 0
-1102 104 0
-1103 90 0
-1103 105 0
-1104 95 0
-1104 99 0
-1105 95 0
-1105 102 0
-1106 95 0
-1106 104 0
-1107 95 0
-1107 105 0
-1108 99 0
-1108 102 0
-1109 99 0
-1109 104 0
-1110 99 0
-1110 105 0
-1111 102 0
-1111 104 0
-1112 102 0
-1112 105 0
-1113 104 0
-1113 105 0
1093 1094 1095 1096 1097 1098 1099 1100 1101 1102 1103 1104 1105 1106 1107 1108 1109 1110 1111 1112 1113 0
-1114 8 0
-1114 85 0
-1115 8 0
-1115 106 0
-1116 8 0
-1116 107 0
-1117 8 0
-1117 108 0
-1118 8 0
-1118 109 0
-1119 8 0
-1119 110 0
-1120 85 0
-1120 106 0
-1121 85 0
-1121 107 0
-1122 85 0
-1122 108 0
-1123 85 0
-1123 109 0
-1124 85 0
-1124 110 0
-1125 106 0
-1125 107 0
-1126 106 0
-1126 108 0
-1127 106 0
-1127 109 0
-1128 106 0
-1128 110 0
-1129 107 0
-1129 108 0
-1130 107 0
-1130 109 0
-1131 107 0
-1131 110 0
-1132 108 0
-1132 109 0
-1133 108 0
-1133 110 0
-1134 109 0
-1134 110 0
1114 1115 1116 1117 1118 1119 1120 1121 1122 1123 1124 1125 1126 1127 1128 1129 1130 1131 1132 1133 1134 0
-1135 9 0
-1135 86 0
-1136 9 0
-1136 106 0
-1137 9 0
-1137 111 0
-1138 9 0
-1138 112 0
-1139 9 0
-1139 113 0
-1140 9 0
-1140 114 0
-1141 86 0
-1141 106 0
-1142 86 0
-1142 111 0
-1143 86 0
-1143 112 0
-1144 86 0
-1144 113 0
-1145 86 0
-1145 114 0
-1146 106 0
-1146 111 0
-1147 106 0
-1147 112 0
-1148 106 0
-1148 113 0
-1149 106 0
-1149 114 0
-1150 111 0
-1150 112 0
-1151 111 0
-1151 113 0
-1152 111 0
-1152 114 0
-1153 112 0
-1153 113 0
-1154 112 0
-1154 114 0
-1155 113 0
-1155 114 0
1135 1136 1137 1138 1139 1140 1141 1142 1143 1144 1145 1146 1147 1148 1149 1150 1151 1152 1153 1154 1155 0
-1156 10 0
-1156 87 0
-1157 10 0
-1157 107 0
-1158 10 0
-1158 111 0
-1159 10 0
-1159 115 0
-1160 10 0
-1160 116 0
-1161 10 0
-1161 117 0
-1162 87 0
-1162 107 0
-1163 87 0
-1163 111 0
-1164 87 0
-1164 115 0
-1165 87 0
-1165 116 0
-1166 87 0
-1166 117 0
-1167 107 0
-1167 111 0
-1168 107 0
-1168 115 0
-1169 107 0
-1169 116 0
-1170 107 0
-1170 117 0
-1171 111 0
-1171 115 0
-1172 111 0
-1172 116 0
-1173 111 0
-1173 117 0
-1174 115 0
-1174 116 0
-1175 115 0
-1175 117 0
-1176 116 0
-1176 117 0
1156 1157 1158 1159 1160 1161 1162 1163 1164 1165 1166 1167 1168 1169 1170 1171 1172 1173 1174 1175 1176 0
-1177 11 0
-1177 88 0
-1178 11 0
-1178 108 0
-1179 11 0
-1179 112 0
-1180 11 0
-1180 115 0
-1181 11 0
-1181 118 0
-1182 11 0
-1182 119 0
-1183 88 0
-1183 108 0
-1184 88 0
-1184 112 0
-1185 88 0
-1185 115 0
-1186 88 0
-1186 118 0
-1187 88 0
-1187 119 0
-1188 108 0
-1188 112 0
-1189 108 0
-1189 115 0
-1190 108 0
-1190 118 0
-1191 108 0
-1191 119 0
-1192 112 0
-1192 115 0
-1193 112 0
-1193 118 0
-1194 112 0
-1194 119 0
-1195 115 0
-1195 118 0
-1196 115 0
-1196 119 0
-1197 118 0
-1197 119 0
1177 1178 1179 1180 1181 1182 1183 1184 1185 1186 1187 1188 1189 1190 1191 1192 1193 1194 1195 1196 1197 0
-1198 12 0
-1198 89 0
-1199 12 0
-1199 109 0
-1200 12 0
-1200 113 0
-1201 12 0
-1201 116 0
-1202 12 0
-1202 118 0
-1203 12 0
-1203 120 0
-1204 89 0
-1204 109 0
-1205 89 0
-1205 113 0
-1206 89 0
-1206 116 0
-1207 89 0
-1207 118 0
-1208 89 0
-1208 120 0
-1209 109 0
-1209 113 0
-1210 109 0
-1210 116 0
-1211 109 0
-1211 118 0
-1212 109 0
-1212 120 0
-1213 113 0
-1213 116 0
-1214 113 0
-1214 118 0
-1215 113 0
-1215 120 0
-1216 116 0
-1216 118 0
-1217 116 0
-1217 120 0
-1218 118 0
-1218 120 0
1198 1199 1200 1201 1202 1203 1204 1205 1206 1207 1208 1209 1210 1211 1212 1213 1214 1215 1216 1217 1218 0
-1219 13 0
-1219 90 0
-1220 13 0
-1220 110 0
-1221 13 0
-1221 114 0
-1222 13 0
-1222 117 0
-1223 13 0
-1223 119 0
-1224 13 0
-1224 120 0
-1225 90 0
-1225 110 0
-1226 90 0
-1226 114 0
-1227 90 0
-1227 117 0
-1228 90 0
-1228 119 0
-1229 90 0
-1229 120 0
-1230 110 0
-1230 114 0
-1231 110 0
-1231 117 0
-1232 110 0
-1232 119 0
-1233 110 0
-1233 120 0
-1234 114 0
-1234 117 0
-1235 114 0
-1235 119 0
-1236 114 0
-1236 120 0
-1237 117 0
-1237 119 0
-1238 117 0
-1238 120 0
-1239 119 0
-1239 120 0
1219 1220 1221 1222 1223 1224 1225 1226 1227 1228 1229 1230 1231 1232 1233 1234 1235 1236 1237 1238 1239 0
-1240 14 0
-1240 91 0
-1241 14 0
-1241 106 0
-1242 14 0
-1242 121 0
-1243 14 0
-1243 122 0
-1244 14 0
-1244 123 0
-1245 14 0
-1245 124 0
-1246 91 0
-1246 106 0
-1247 91 0
-1247 121 0
-1248 91 0
-1248 122 0
-1249 91 0
-1249 123 0
-1250 91 0
-1250 124 0
-1251 106 0
-1251 121 0
-1252 106 0
-1252 122 0
-1253 106 0
-1253 123 0
-1254 106 0
-1254 124 0
-1255 121 0
-1255 122 0
-1256 121 0
-1256 123 0
-1257 121 0
-1257 124 0
-1258 122 0
-1258 123 0
-1259 122 0
-1259 124 0
-1260 123 0
-1260 124 0
1240 1241 1242 1243 1244 1245 1246 1247 1248 1249 1250 1251 1252 1253 1254 1255 1256 1257 1258 1259 1260 0
-1261 15 0
-1261 92 0
-1262 15 0
-1262 107 0
-1263 15 0
-1263 121 0
-1264 15 0
-1264 125 0
-1265 15 0
-1265 126 0
-1266 15 0
-1266 127 0
-1267 92 0
-1267 107 0
-1268 92 0
-1268 121 0
-1269 92 0
-1269 125 0
-1270 92 0
-1270 126 0
-1271 92 0
-1271 127 0
-1272 107 0
-1272 121 0
-1273 107 0
-1273 125 0
-1274 107 0
-1274 126 0
-1275 107 0
-1275 127 0
-1276 121 0
-1276 125 0
-1277 121 0
-1277 126 0
-1278 121 0
-1278 127 0
-1279 125 0
-1279 126 0
-1280 125 0
-1280 127 0
-1281 126 0
-1281 127 0
1261 1262 1263 1264 1265 1266 1267 1268 1269 1270 1271 1272 1273 1274 1275 1276 1277 1278 1279 1280 1281 0
-1282 16 0
-1282 93 0
-1283 16 0
-1283 108 0
-1284 16 0
-1284 122 0
-1285 16 0
-1285 125 0
-1286 16 0
-1286 128 0
-1287 16 0
-1287 129 0
-1288 93 0
-1288 108 0
-1289 93 0
-1289 122 0
-1290 93 0
-1290 125 0
-1291 93 0
-1291 128 0
-1292 93 0
-1292 129 0
-1293 108 0
-1293 122 0
-1294 108 0
-1294 125 0
-1295 108 0
-1295 128 0
-1296 108 0
-1296 129 0
-1297 122 0
-1297 125 0
-1298 122 0
-1298 128 0
-1299 122 0
-1299 129 0
-1300 125 0
-1300 128 0
-1301 125 0
-1301 129 0
-1302 128 0
-1302 129 0
1282 1283 1284 1285 1286 1287 1288 1289 1290 1291 1292 1293 1294 1295 1296 1297 1298 1299 1300 1301 1302 0
-1303 17 0
-1303 94 0
-1304 17 0
-1304 109 0
-1305 17 0
-1305 123 0
-1306 17 0
-1306 126 0
-1307 17 0
-1307 128 0
-1308 17 0
-1308 130 0
-1309 94 0
-1309 109 0
-1310 94 0
-1310 123 0
-1311 94 0
-1311 126 0
-1312 94 0
-1312 128 0
-1313 94 0
-1313 130 0
-1314 109 0
-1314 123 0
-1315 109 0
-1315 126 0
-1316 109 0
-1316 128 0
-1317 109 0
-1317 130 0
-1318 123 0
-1318 126 0
-1319 123 0
-1319 128 0
-1320 123 0
-1320 130 0
-1321 126 0
-1321 128 0
-1322 126 0
-1322 130 0
-1323 128 0
-1323 130 0
1303 1304 1305 1306 1307 1308 1309 1310 1311 1312 1313 1314 1315 1316 1317 1318 1319 1320 1321 1322 1323 0
-1324 18 0
-1324 95 0
-1325 18 0
-1325 110 0
-1326 18 0
-1326 124 0
-1327 18 0
-1327 127 0
-1328 18 0
-1328 129 0
-1329 18 0
-1329 130 0
-1330 95 0
-1330 110 0
-1331 95 0
-1331 124 0
-1332 95 0
-1332 127 0
-1333 95 0
-1333 129 0
-1334 95 0
-1334 130 0
-1335 110 0
-1335 124 0
-1336 110 0
-1336 127 0
-1337 110 0
-1337 129 0
-1338 110 0
-1338 130 0
-1339 124 0
-1339 127 0
-1340 124 0
-1340 129 0
-1341 124 0
-1341 130 0
-1342 127 0
-1342 129 0
-1343 127 0
-1343 130 0
-1344 129 0
-1344 130 0
1324 1325 1326 1327 1328 1329 1330 1331 1332 1333 1334 1335 1336 1337 1338 1339 1340 1341 1342 1343 1344 0
-1345 19 0
-1345 96 0
-1346 19 0
-1346 111 0
-1347 19 0
-1347 121 0
-1348 19 0
-1348 131 0
-1349 19 0
-1349 132 0
-1350 19 0
-1350 133 0
-1351 96 0
-1351 111 0
-1352 96 0
-1352 121 0
-1353 96 0
-1353 131 0
-1354 96 0
-1354 132 0
-1355 96 0
-1355 133 0
-1356 111 0
-1356 121 0
-1357 111 0
-1357 131 0
-1358 111 0
-1358 132 0
-1359 111 0
-1359 133 0
-1360 121 0
-1360 131 0
-1361 121 0
-1361 132 0
-1362 121 0
-1362 133 0
-1363 131 0
-1363 132 0
-1364 131 0
-1364 133 0
-1365 132 0
-1365 133 0
1345 1346 1347 1348 1349 1350 1351 1352 1353 1354 1355 1356 1357 1358 1359 1360 1361 1362 1363 1364 1365 0
-1366 20 0
-1366 97 0
-1367 20 0
-1367 112 0
-1368 20 0
-1368 122 0
-1369 20 0
-1369 131 0
-1370 20 0
-1370 134 0
-1371 20 0
-1371 135 0
-1372 97 0
-1372 112 0
-1373 97 0
-1373 122 0
-1374 97 0
-1374 131 0
-1375 97 0
-1375 134 0
-1376 97 0
-1376 135 0
-1377 112 0
-1377 122 0
-1378 112 0
-1378 131 0
-1379 112 0
-1379 134 0
-1380 112 0
-1380 135 0
-1381 122 0
-1381 131 0
-1382 122 0
-1382 134 0
-1383 122 0
-1383 135 0
-1384 131 0
-1384 134 0
-1385 131 0
-1385 135 0
-1386 134 0
-1386 135 0
1366 1367 1368 1369 1370 1371 1372 1373 1374 1375 1376 1377 1378 1379 1380 1381 1382 1383 1384 1385 1386 0
-1387 21 0
-1387 98 0
-1388 21 0
-1388 113 0
-1389 21 0
-1389 123 0
-1390 21 0
-1390 132 0
-1391 21 0
-1391 134 0
-1392 21 0
-1392 136 0
-1393 98 0
-1393 113 0
-1394 98 0
-1394 123 0
-1395 98 0
-1395 132 0
-1396 98 0
-1396 134 0
-1397 98 0
-1397 136 0
-1398 113 0
-1398 123 0
-1399 113 0
-1399 132 0
-1400 113 0
-1400 134 0
-1401 113 0
-1401 136 0
-1402 123 0
-1402 132 0
-1403 123 0
-1403 134 0
-1404 123 0
-1404 136 0
-1405 132 0
-1405 134 0
-1406 132 0
-1406 136 0
-1407 134 0
-1407 136 0
1387 1388 1389 1390 1391 1392 1393 1394 1395 1396 1397 1398 1399 1400 1401 1402 1403 1404 1405 1406 1407 0
-1408 22 0
-1408 99 0
-1409 22 0
-1409 114 0
-1410 22 0
-1410 124 0
-1411 22 0
-1411 133 0
-1412 22 0
-1412 135 0
-1413 22 0
-1413 136 0
-1414 99 0
-1414 114 0
-1415 99 0
-1415 124 0
-1416 99 0
-1416 133 0
-1417 99 0
-1417 135 0
-1418 99 0
-1418 136 0
-1419 114 0
-1419 124 0
-1420 114 0
-1420 133 0
-1421 114 0
-1421 135 0
-1422 114 0
-1422 136 0
-1423 124 0
-1423 133 0
-1424 124 0
-1424 135 0
-1425 124 0
-1425 136 0
-1426 133 0
-1426 135 0
-1427 133 0
-1427 136 0
-1428 135 0
-1428 136 0
1408 1409 1410 1411 1412 1413 1414 1415 1416 1417 1418 1419 1420 1421 1422 1423 1424 1425 1426 1427 1428 0
-1429 23 0
-1429 100 0
-1430 23 0
-1430 115 0
-1431 23 0
-1431 125 0
-1432 23 0
-1432 131 0
-1433 23 0
-1433 137 0
-1434 23 0
-1434 138 0
-1435 100 0
-1435 115 0
-1436 100 0
-1436 125 0
-1437 100 0
-1437 131 0
-1438 100 0
-1438 137 0
-1439 100 0
-1439 138 0
-1440 115 0
-1440 125 0
-1441 115 0
-1441 131 0
-1442 115 0
-1442 137 0
-1443 115 0
-1443 138 0
-1444 125 0
-1444 131 0
-1445 125 0
-1445 137 0
-1446 125 0
-1446 138 0
-1447 131 0
-1447 137 0
-1448 131 0
-1448 138 0
-1449 137 0
-1449 138 0
1429 1430 1431 1432 1433 1434 1435 1436 1437 1438 1439 1440 1441 1442 1443 1444 1445 1446 1447 1448 1449 0
-1450 24 0
-1450 101 0
-1451 24 0
-1451 116 0
-1452 24 0
-1452 126 0
-1453 24 0
-1453 132 0
-1454 24 0
-1454 137 0
-1455 24 0
-1455 139 0
-1456 101 0
-1456 116 0
-1457 101 0
-1457 126 0
-1458 101 0
-1458 132 0
-1459 101 0
-1459 137 0
-1460 101 0
-1460 139 0
-1461 116 0
-1461 126 0
-1462 116 0
-1462 132 0
-1463 116 0
-1463 137 0
-1464 116 0
-1464 139 0
-1465 126 0
-1465 132 0
-1466 126 0
-1466 137 0
-1467 126 0
-1467 139 0
-1468 132 0
-1468 137 0
-1469 132 0
-1469 139 0
-1470 137 0
-1470 139 0
1450 1451 1452 1453 1454 1455 1456 1457 1458 1459 1460 1461 1462 1463 1464 1465 1466 1467 1468 1469 1470 0
-1471 25 0
-1471 102 0
-1472 25 0
-1472 117 0
-1473 25 0
-1473 127 0
-1474 25 0
-1474 133 0
-1475 25 0
-1475 138 0
-1476 25 0
-1476 139 0
-1477 102 0
-1477 117 0
-1478 102 0
-1478 127 0
-1479 102 0
-1479 133 0
-1480 102 0
-1480 138 0
-1481 102 0
-1481 139 0
-1482 117 0
-1482 127 0
-1483 117 0
-1483 133 0
-1484 117 0
-1484 138 0
-1485 117 0
-1485 139 0
-1486 127 0
-1486 133 0
-1487 127 0
-1487 138 0
-1488 127 0
-1488 139 0
-1489 133 0
-1489 138 0
-1490 133 0
-1490 139 0
-1491 138 0
-1491 139 0
1471 1472 1473 1474 1475 1476 1477 1478 1479 1480 1481 1482 1483 1484 1485 1486 1487 1488 1489 1490 1491 0
-1492 26 0
-1492 103 0
-1493 26 0
-1493 118 0
-1494 26 0
-1494 128 0
-1495 26 0
-1495 134 0
-1496 26 0
-1496 137 0
-1497 26 0
-1497 140 0
-1498 103 0
-1498 118 0
-1499 103 0
-1499 128 0
-1500 103 0
-1500 134 0
-1501 103 0
-1501 137 0
-1502 103 0
-1502 140 0
-1503 118 0
-1503 128 0
-1504 118 0
-1504 134 0
-1505 118 0
-1505 137 0
-1506 118 0
-1506 140 0
-1507 128 0
-1507 134 0
-1508 128 0
-1508 137 0
-1509 128 0
-1509 140 0
-1510 134 0
-1510 137 0
-1511 134 0
-1511 140 0
-1512 137 0
-1512 140 0
1492 1493 1494 1495 1496 1497 1498 1499 1500 1501 1502 1503 1504 1505 1506 1507 1508 1509 1510 1511 1512 0
-1513 27 0
-1513 104 0
-1514 27 0
-1514 119 0
-1515 27 0
-1515 129 0
-1516 27 0
-1516 135 0
-1517 27 0
-1517 138 0
-1518 27 0
-1518 140 0
-1519 104 0
-1519 119 0
-1520 104 0
-1520 129 0
-1521 104 0
-1521 135 0
-1522 104 0
-1522 138 0
-1523 104 0
-1523 140 0
-1524 119 0
-1524 129 0
-1525 119 0
-1525 135 0
-1526 119 0
-1526 138 0
-1527 119 0
-1527 140 0
-1528 129 0
-1528 135 0
-1529 129 0
-1529 138 0
-1530 129 0
-1530 140 0
-1531 135 0
-1531 138 0
-1532 135 0
-1532 140 0
-1533 138 0
-1533 140 0
1513 1514 1515 1516 1517 1518 1519 1520 1521 1522 1523 1524 1525 1526 1527 1528 1529 1530 1531 1532 1533 0
-1534 28 0
-1534 105 0
-1535 28 0
-1535 120 0
-1536 28 0
-1536 130 0
-1537 28 0
-1537 136 0
-1538 28 0
-1538 139 0
-1539 28 0
-1539 140 0
-1540 105 0
-1540 120 0
-1541 105 0
-1541 130 0
-1542 105 0
-1542 136 0
-1543 105 0
-1543 139 0
-1544 105 0
-1544 140 0
-1545 120 0
-1545 130 0
-1546 120 0
-1546 136 0
-1547 120 0
-1547 139 0
-1548 120 0
-1548 140 0
-1549 130 0
-1549 136 0
-1550 130 0
-1550 139 0
-1551 130 0
-1551 140 0
-1552 136 0
-1552 139 0
-1553 136 0
-1553 140 0
-1554 139 0
-1554 140 0
1534 1535 1536 1537 1538 1539 1540 1541 1542 1543 1544 1545 1546 1547 1548 1549 1550 1551 1552 1553 1554 0
-1555 29 0
-1555 85 0
-1556 29 0
-1556 141 0
-1557 29 0
-1557 142 0
-1558 29 0
-1558 143 0
-1559 29 0
-1559 144 0
-1560 29 0
-1560 145 0
-1561 85 0
-1561 141 0
-1562 85 0
-1562 142 0
-1563 85 0
-1563 143 0
-1564 85 0
-1564 144 0
-1565 85 0
-1565 145 0
-1566 141 0
-1566 142 0
-1567 141 0
-1567 143 0
-1568 141 0
-1568 144 0
-1569 141 0
-1569 145 0
-1570 142 0
-1570 143 0
-1571 142 0
-1571 144 0
-1572 142 0
-1572 145 0
-1573 143 0
-1573 144 0
-1574 143 0
-1574 145 0
-1575 144 0
-1575 145 0
1555 1556 1557 1558 1559 1560 1561 1562 1563 1564 1565 1566 1567 1568 1569 1570 1571 1572 1573 1574 1575 0
-1576 30 0
-1576 86 0
-1577 30 0
-1577 141 0
-1578 30 0
-1578 146 0
-1579 30 0
-1579 147 0
-1580 30 0
-1580 148 0
-1581 30 0
-1581 149 0
-1582 86 0
-1582 141 0
-1583 86 0
-1583 146 0
-1584 86 0
-1584 147 0
-1585 86 0
-1585 148 0
-1586 86 0
-1586 149 0
-1587 141 0
-1587 146 0
-1588 141 0
-1588 147 0
-1589 141 0
-1589 148 0
-1590 141 0
-1590 149 0
-1591 146 0
-1591 147 0
-1592 146 0
-1592 148 0
-1593 146 0
-1593 149 0
-1594 147 0
-1594 148 0
-1595 147 0
-1595 149 0
-1596 148 0
-1596 149 0
1576 1577 1578 1579 1580 1581 1582 1583 1584 1585 1586 1587 1588 1589 1590 1591 1592 1593 1594 1595 1596 0
-1597 31 0
-1597 87 0
-1598 31 0
-1598 142 0
-1599 31 0
-1599 146 0
-1600 31 0
-1600 150 0
-1601 31 0
-1601 151 0
-1602 31 0
-1602 152 0
-1603 87 0
-1603 142 0
-1604 87 0
-1604 146 0
-1605 87 0
-1605 150 0
-1606 87 0
-1606 151 0
-1607 87 0
-1607 152 0
-1608 142 0
-1608 146 0
-1609 142 0
-1609 150 0
-1610 142 0
-1610 151 0
-1611 142 0
-1611 152 0
-1612 146 0
-1612 150 0
-1613 146 0
-1613 151 0
-1614 146 0
-1614 152 0
-1615 150 0
-1615 151 0
-1616 150 0
-1616 152 0
-1617 151 0
-1617 152 0
1597 1598 1599 1600 1601 1602 1603 1604 1605 1606 1607 1608 1609 1610 1611 1612 1613 1614 1615 1616 1617 0
-1618 32 0
-1618 88 0
-1619 32 0
-1619 143 0
-1620 32 0
-1620 147 0
-1621 32 0
-1621 150 0
-1622 32 0
-1622 153 0
-1623 32 0
-1623 154 0
-1624 88 0
-1624 143 0
-1625 88 0
-1625 147 0
-1626 88 0
-1626 150 0
-1627 88 0
-1627 153 0
-1628 88 0
-1628 154 0
-1629 143 0
-1629 147 0
-1630 143 0
-1630 150 0
-1631 143 0
-1631 153 0
-1632 143 0
-1632 154 0
-1633 147 0
-1633 150 0
-1634 147 0
-1634 153 0
-1635 147 0
-1635 154 0
-1636 150 0
-1636 153 0
-1637 150 0
-1637 154 0
-1638 153 0
-1638 154 0
1618 1619 1620 1621 1622 1623 1624 1625 1626 1627 1628 1629 1630 1631 1632 1633 1634 1635 1636 1637 1638 0
-1639 33 0
-1639 89 0
-1640 33 0
-1640 144 0
-1641 33 0
-1641 148 0
-1642 33 0
-1642 151 0
-1643 33 0
-1643 153 0
-1644 33 0
-1644 155 0
-1645 89 0
-1645 144 0
-1646 89 0
-1646 148 0
-1647 89 0
-1647 151 0
-1648 89 0
-1648 153 0
-1649 89 0
-1649 155 0
-1650 144 0
-1650 148 0
-1651 144 0
-1651 151 0
-1652 144 0
-1652 153 0
-1653 144 0
-1653 155 0
-1654 148 0
-1654 151 0
-1655 148 0
-1655 153 0
-1656 148 0
-1656 155 0
-1657 151 0
-1657 153 0
-1658 151 0
-1658 155 0
-1659 153 0
-1659 155 0
1639 1640 1641 1642 1643 1644 1645 1646 1647 1648 1649 1650 1651 1652 1653 1654 1655 1656 1657 1658 1659 0
-1660 34 0
-1660 90 0
-1661 34 0
-1661 145 0
-1662 34 0
-1662 149 0
-1663 34 0
-1663 152 0
-1664 34 0
-1664 154 0
-1665 34 0
-1665 155 0
-1666 90 0
-1666 145 0
-1667 90 0
-1667 149 0
-1668 90 0
-1668 152 0
-1669 90 0
-1669 154 0
-1670 90 0
-1670 155 0
-1671 145 0
-1671 149 0
-1672 145 0
-1672 152 0
-1673 145 0
-1673 154 0
-1674 145 0
-1674 155 0
-1675 149 0
-1675 152 0
-1676 149 0
-1676 154 0
-1677 149 0
-1677 155 0
-1678 152 0
-1678 154 0
-1679 152 0
-1679 155 0
-1680 154 0
-1680 155 0
1660 1661 1662 1663 1664 1665 1666 1667 1668 1669 1670 1671 1672 1673 1674 1675 1676 1677 1678 1679 1680 0
-1681 35 0
-1681 91 0
-1682 35 0
-1682 141 0
-1683 35 0
-1683 156 0
-1684 35 0
-1684 157 0
-1685 35 0
-1685 158 0
-1686 35 0
-1686 159 0
-1687 91 0
-1687 141 0
-1688 91 0
-1688 156 0
-1689 91 0
-1689 157 0
-1690 91 0
-1690 158 0
-1691 91 0
-1691 159 0
-1692 141 0
-1692 156 0
-1693 141 0
-1693 157 0
-1694 141 0
-1694 158 0
-1695 141 0
-1695 159 0
-1696 156 0
-1696 157 0
-1697 156 0
-1697 158 0
-1698 156 0
-1698 159 0
-1699 157 0
-1699 158 0
-1700 157 0
-1700 159 0
-1701 158 0
-1701 159 0
1681 1682 1683 1684 1685 1686 1687 1688 1689 1690 1691 1692 1693 1694 1695 1696 1697 1698 1699 1700 1701 0
-1702 36 0
-1702 92 0
-1703 36 0
-1703 142 0
-1704 36 0
-1704 156 0
-1705 36 0
-1705 160 0
-1706 36 0
-1706 161 0
-1707 36 0
-1707 162 0
-1708 92 0
-1708 142 0
-1709 92 0
-1709 156 0
-1710 92 0
-1710 160 0
-1711 92 0
-1711 161 0
-1712 92 0
-1712 162 0
-1713 142 0
-1713 156 0
-1714 142 0
-1714 160 0
-1715 142 0
-1715 161 0
-1716 142 0
-1716 162 0
-1717 156 0
-1717 160 0
-1718 156 0
-1718 161 0
-1719 156 0
-1719 162 0
-1720 160 0
-1720 161 0
-1721 160 0
-1721 162 0
-1722 161 0
-1722 162 0
1702 1703 1704 1705 1706 1707 1708 1709 1710 1711 1712 1713 1714 1715 1716 1717 1718 1719 1720 1721 1722 0
-1723 37 0
-1723 93 0
-1724 37 0
-1724 143 0
-1725 37 0
-1725 157 0
-1726 37 0
-1726 160 0
-1727 37 0
-1727 163 0
-1728 37 0
-1728 164 0
-1729 93 0
-1729 143 0
-1730 93 0
-1730 157 0
-1731 93 0
-1731 160 0
-1732 93 0
-1732 163 0
-1733 93 0
-1733 164 0
-1734 143 0
-1734 157 0
-1735 143 0
-1735 160 0
-1736 143 0
-1736 163 0
-1737 143 0
-1737 164 0
-1738 157 0
-1738 160 0
-1739 157 0
-1739 163 0
-1740 157 0
-1740 164 0
-1741 160 0
-1741 163 0
-1742 160 0
-1742 164 0
-1743 163 0
-1743 164 0
1723 1724 1725 1726 1727 1728 1729 1730 1731 1732 1733 1734 1735 1736 1737 1738 1739 1740 1741 1742 1743 0
-1744 38 0
-1744 94 0
-1745 38 0
-1745 144 0
-1746 38 0
-1746 158 0
-1747 38 0
-1747 161 0
-1748 38 0
-1748 163 0
-1749 38 0
-1749 165 0
-1750 94 0
-1750 144 0
-1751 94 0
-1751 158 0
-1752 94 0
-1752 161 0
-1753 94 0
-1753 163 0
-1754 94 0
-1754 165 0
-1755 144 0
-1755 158 0
-1756 144 0
-1756 161 0
-1757 144 0
-1757 163 0
-1758 144 0
-1758 165 0
-1759 158 0
-1759 161 0
-1760 158 0
-1760 163 0
-1761 158 0
-1761 165 0
-1762 161 0
-1762 163 0
-1763 161 0
-1763 165 0
-1764 163 0
-1764 165 0
1744 1745 1746 1747 1748 1749 1750 1751 1752 1753 1754 1755 1756 1757 1758 1759 1760 1761 1762 1763 1764 0
-1765 39 0
-1765 95 0
-1766 39 0
-1766 145 0
-1767 39 0
-1767 159 0
-1768 39 0
-1768 162 0
-1769 39 0
-1769 164 0
-1770 39 0
-1770 165 0
-1771 95 0
-1771 145 0
-1772 95 0
-1772 159 0
-1773 95 0
-1773 162 0
-1774 95 0
-1774 164 0
-1775 95 0
-1775 165 0
-1776 145 0
-1776 159 0
-1777 145 0
-1777 162 0
-1778 145 0
-1778 164 0
-1779 145 0
-1779 165 0
-1780 159 0
-1780 162 0
-1781 159 0
-1781 164 0
-1782 159 0
-1782 165 0
-1783 162 0
-1783 164 0
-1784 162 0
-1784 165 0
-1785 164 0
-1785 165 0
1765 1766 1767 1768 1769 1770 1771 1772 1773 1774 1775 1776 1777 1778 1779 1780 1781 1782 1783 1784 1785 0
-1786 40 0
-1786 96 0
-1787 40 0
-1787 146 0
-1788 40 0
-1788 156 0
-1789 40 0
-1789 166 0
-1790 40 0
-1790 167 0
-1791 40 0
-1791 168 0
-1792 96 0
-1792 146 0
-1793 96 0
-1793 156 0
-1794 96 0
-1794 166 0
-1795 96 0
-1795 167 0
-1796 96 0
-1796 168 0
-1797 146 0
-1797 156 0
-1798 146 0
-1798 166 0
-1799 146 0
-1799 167 0
-1800 146 0
-1800 168 0
-1801 156 0
-1801 166 0
-1802 156 0
-1802 167 0
-1803 156 0
-1803 168 0
-1804 166 0
-1804 167 0
-1805 166 0
-1805 168 0
-1806 167 0
-1806 168 0
1786 1787 1788 1789 1790 1791 1792 1793 1794 1795 1796 1797 1798 1799 1800 1801 1802 1803 1804 1805 1806 0
-1807 41 0
-1807 97 0
-1808 41 0
-1808 147 0
-1809 41 0
-1809 157 0
-1810 41 0
-1810 166 0
-1811 41 0
-1811 169 0
-1812 41 0
-1812 170 0
-1813 97 0
-1813 147 0
-1814 97 0
-1814 157 0
-1815 97 0
-1815 166 0
-1816 97 0
-1816 169 0
-1817 97 0
-1817 170 0
-1818 147 0
-1818 157 0
-1819 147 0
-1819 166 0
-1820 147 0
-1820 169 0
-1821 147 0
-1821 170 0
-1822 157 0
-1822 166 0
-1823 157 0
-1823 169 0
-1824 157 0
-1824 170 0
-1825 166 0
-1825 169 0
-1826 166 0
-1826 170 0
-1827 169 0
-1827 170 0
1807 1808 1809 1810 1811 1812 1813 1814 1815 1816 1817 1818 1819 1820 1821 1822 1823 1824 1825 1826 1827 0
-1828 42 0
-1828 98 0
-1829 42 0
-1829 148 0
-1830 42 0
-1830 158 0
-1831 42 0
-1831 167 0
-1832 42 0
-1832 169 0
-1833 42 0
-1833 171 0
-1834 98 0
-1834 148 0
-1835 98 0
-1835 158 0
-1836 98 0
-1836 167 0
-1837 98 0
-1837 169 0
-1838 98 0
-1838 171 0
-1839 148 0
-1839 158 0
-1840 148 0
-1840 167 0
-1841 148 0
-1841 169 0
-1842 148 0
-1842 171 0
-1843 158 0
-1843 167 0
-1844 158 0
-1844 169 0
-1845 158 0
-1845 171 0
-1846 167 0
-1846 169 0
-1847 167 0
-1847 171 0
-1848 169 0
-1848 171 0
1828 1829 1830 1831 1832 1833 1834 1835 1836 1837 1838 1839 1840 1841 1842 1843 1844 1845 1846 1847 1848 0
-1849 43 0
-1849 99 0
-1850 43 0
-1850 149 0
-1851 43 0
-1851 159 0
-1852 43 0
-1852 168 0
-1853 43 0
-1853 170 0
-1854 43 0
-1854 171 0
-1855 99 0
-1855 149 0
-1856 99 0
-1856 159 0
-1857 99 0
-1857 168 0
-1858 99 0
-1858 170 0
-1859 99 0
-1859 171 0
-1860 149 0
-1860 159 0
-1861 149 0
-1861 168 0
-1862 149 0
-1862 170 0
-1863 149 0
-1863 171 0
-1864 159 0
-1864 168 0
-1865 159 0
-1865 170 0
-1866 159 0
-1866 171 0
-1867 168 0
-1867 170 0
-1868 168 0
-1868 171 0
-1869 170 0
-1869 171 0
1849 1850 1851 1852 1853 1854 1855 1856 1857 1858 1859 1860 1861 1862 1863 1864 1865 1866 1867 1868 1869 0
-1870 44 0
-1870 100 0
-1871 44 0
-1871 150 0
-1872 44 0
-1872 160 0
-1873 44 0
-1873 166 0
-1874 44 0
-1874 172 0
-1875 44 0
-1875 173 0
-1876 100 0
-1876 150 0
-1877 100 0
-1877 160 0
-1878 100 0
-1878 166 0
-1879 100 0
-1879 172 0
-1880 100 0
-1880 173 0
-1881 150 0
-1881 160 0
-1882 150 0
-1882 166 0
-1883 150 0
-1883 172 0
-1884 150 0
-1884 173 0
-1885 160 0
-1885 166 0
-1886 160 0
-1886 172 0
-1887 160 0
-1887 173 0
-1888 166 0
-1888 172 0
-1889 166 0
-1889 173 0
-1890 172 0
-1890 173 0
1870 1871 1872 1873 1874 1875 1876 1877 1878 1879 1880 1881 1882 1883 1884 1885 1886 1887 1888 1889 1890 0
-1891 45 0
-1891 101 0
-1892 45 0
-1892 151 0
-1893 45 0
-1893 161 0
-1894 45 0
-1894 167 0
-1895 45 0
-1895 172 0
-1896 45 0
-1896 174 0
-1897 101 0
-1897 151 0
-1898 101 0
-1898 161 0
-1899 101 0
-1899 167 0
-1900 101 0
-1900 172 0
-1901 101 0
-1901 174 0
-1902 151 0
-1902 161 0
-1903 151 0
-1903 167 0
-1904 151 0
-1904 172 0
-1905 151 0
-1905 174 0
-1906 161 0
-1906 167 0
-1907 161 0
-1907 172 0
-1908 161 0
-1908 174 0
-1909 167 0
-1909 172 0
-1910 167 0
-1910 174 0
-1911 172 0
-1911 174 0
1891 1892 1893 1894 1895 1896 1897 1898 1899 1900 1901 1902 1903 1904 1905 1906 1907 1908 1909 1910 1911 0
-1912 46 0
-1912 102 0
-1913 46 0
-1913 152 0
-1914 46 0
-1914 162 0
-1915 46 0
-1915 168 0
-1916 46 0
-1916 173 0
-1917 46 0
-1917 174 0
-1918 102 0
-1918 152 0
-1919 102 0
-1919 162 0
-1920 102 0
-1920 168 0
-1921 102 0
-1921 173 0
-1922 102 0
-1922 174 0
-1923 152 0
-1923 162 0
-1924 152 0
-1924 168 0
-1925 152 0
-1925 173 0
-1926 152 0
-1926 174 0
-1927 162 0
-1927 168 0
-1928 162 0
-1928 173 0
-1929 162 0
-1929 174 0
-1930 168 0
-1930 173 0
-1931 168 0
-1931 174 0
-1932 173 0
-1932 174 0
1912 1913 1914 1915 1916 1917 1918 1919 1920 1921 1922 1923 1924 1925 1926 1927 1928 1929 1930 1931 1932 0
-1933 47 0
-1933 103 0
-1934 47 0
-1934 153 0
-1935 47 0
-1935 163 0
-1936 47 0
-1936 169 0
-1937 47 0
-1937 172 0
-1938 47 0
-1938 175 0
-1939 103 0
-1939 153 0
-1940 103 0
-1940 163 0
-1941 103 0
-1941 169 0
-1942 103 0
-1942 172 0
-1943 103 0
-1943 175 0
-1944 153 0
-1944 163 0
-1945 153 0
-1945 169 0
-1946 153 0
-1946 172 0
-1947 153 0
-1947 175 0
-1948 163 0
-1948 169 0
-1949 163 0
-1949 172 0
-1950 163 0
-1950 175 0
-1951 169 0
-1951 172 0
-1952 169 0
-1952 175 0
-1953 172 0
-1953 175 0
1933 1934 1935 1936 1937 1938 1939 1940 1941 1942 1943 1944 1945 1946 1947 1948 1949 1950 1951 1952 1953 0
-1954 48 0
-1954 104 0
-1955 48 0
-1955 154 0
-1956 48 0
-1956 164 0
-1957 48 0
-1957 170 0
-1958 48 0
-1958 173 0
-1959 48 0
-1959 175 0
-1960 104 0
-1960 154 0
-1961 104 0
-1961 164 0
-1962 104 0
-1962 170 0
-1963 104 0
-1963 173 0
-1964 104 0
-1964 175 0
-1965 154 0
-1965 164 0
-1966 154 0
-1966 170 0
-1967 154 0
-1967 173 0
-1968 154 0
-1968 175 0
-1969 164 0
-1969 170 0
-1970 164 0
-1970 173 0
-1971 164 0
-1971 175 0
-1972 170 0
-1972 173 0
-1973 170 0
-1973 175 0
-1974 173 0
-1974 175 0
1954 1955 1956 1957 1958 1959 1960 1961 1962 1963 1964 1965 1966 1967 1968 1969 1970 1971 1972 1973 1974 0
-1975 49 0
-1975 105 0
-1976 49 0
-1976 155 0
-1977 49 0
-1977 165 0
-1978 49 0
-1978 171 0
-1979 49 0
-1979 174 0
-1980 49 0
-1980 175 0
-1981 105 0
-1981 155 0
-1982 105 0
-1982 165 0
-1983 105 0
-1983 171 0
-1984 105 0
-1984 174 0
-1985 105 0
-1985 175 0
-1986 155 0
-1986 165 0
-1987 155 0
-1987 171 0
-1988 155 0
-1988 174 0
-1989 155 0
-1989 175 0
-1990 165 0
-1990 171 0
-1991 165 0
-1991 174 0
-1992 165 0
-1992 175 0
-1993 171 0
-1993 174 0
-1994 171 0
-1994 175 0
-1995 174 0
-1995 175 0
1975 1976 1977 1978 1979 1980 1981 1982 1983 1984 1985 1986 1987 1988 1989 1990 1991 1992 1993 1994 1995 0
-1996 50 0
-1996 106 0
-1997 50 0
-1997 141 0
-1998 50 0
-1998 176 0
-1999 50 0
-1999 177 0
-2000 50 0
-2000 178 0
-2001 50 0
-2001 179 0
-2002 106 0
-2002 141 0
-2003 106 0
-2003 176 0
-2004 106 0
-2004 177 0
-2005 106 0
-2005 178 0
-2006 106 0
-2006 179 0
-2007 141 0
-2007 176 0
-2008 141 0
-2008 177 0
-2009 141 0
-2009 178 0
-2010 141 0
-2010 179 0
-2011 176 0
-2011 177 0
-2012 176 0
-2012 178 0
-2013 176 0
-2013 179 0
-2014 177 0
-2014 178 0
-2015 177 0
-2015 179 0
-2016 178 0
-2016 179 0
1996 1997 1998 1999 2000 2001 2002 2003 2004 2005 2006 2007 2008 2009 2010 2011 2012 2013 2014 2015 2016 0
-2017 51 0
-2017 107 0
-2018 51 0
-2018 142 0
-2019 51 0
-2019 176 0
-2020 51 0
-2020 180 0
-2021 51 0
-2021 181 0
-2022 51 0
-2022 182 0
-2023 107 0
-2023 142 0
-2024 107 0
-2024 176 0
-2025 107 0
-2025 180 0
-2026 107 0
-2026 181 0
-2027 107 0
-2027 182 0
-2028 142 0
-2028 176 0
-2029 142 0
-2029 180 0
-2030 142 0
-2030 181 0
-2031 142 0
-2031 182 0
-2032 176 0
-2032 180 0
-2033 176 0
-2033 181 0
-2034 176 0
-2034 182 0
-2035 180 0
-2035 181 0
-2036 180 0
-2036 182 0
-2037 181 0
-2037 182 0
2017 2018 2019 2020 2021 2022 2023 2024 2025 2026 2027 2028 2029 2030 2031 2032 2033 2034 2035 2036 2037 0
-2038 52 0
-2038 108 0
-2039 52 0
-2039 143 0
-2040 52 0
-2040 177 0
-2041 52 0
-2041 180 0
-2042 52 0
-2042 183 0
-2043 52 0
-2043 184 0
-2044 108 0
-2044 143 0
-2045 108 0
-2045 177 0
-2046 108 0
-2046 180 0
-2047 108 0
-2047 183 0
-2048 108 0
-2048 184 0
-2049 143 0
-2049 177 0
-2050 143 0
-2050 180 0
-2051 143 0
-2051 183 0
-2052 143 0
-2052 184 0
-2053 177 0
-2053 180 0
-2054 177 0
-2054 183 0
-2055 177 0
-2055 184 0
-2056 180 0
-2056 183 0
-2057 180 0
-2057 184 0
-2058 183 0
-2058 184 0
2038 2039 2040 2041 2042 2043 2044 2045 2046 2047 2048 2049 2050 2051 2052 2053 2054 2055 2056 2057 2058 0
-2059 53 0
-2059 109 0
-2060 53 0
-2060 144 0
-2061 53 0
-2061 178 0
-2062 53 0
-2062 181 0
-2063 53 0
-2063 183 0
-2064 53 0
-2064 185 0
-2065 109 0
-2065 144 0
-2066 109 0
-2066 178 0
-2067 109 0
-2067 181 0
-2068 109 0
-2068 183 0
-2069 109 0
-2069 185 0
-2070 144 0
-2070 178 0
-2071 144 0
-2071 181 0
-2072 144 0
-2072 183 0
-2073 144 0
-2073 185 0
-2074 178 0
-2074 181 0
-2075 178 0
-2075 183 0
-2076 178 0
-2076 185 0
-2077 181 0
-2077 183 0
-2078 181 0
-2078 185 0
-2079 183 0
-2079 185 0
2059 2060 2061 2062 2063 2064 2065 2066 2067 2068 2069 2070 2071 2072 2073 2074 2075 2076 2077 2078 2079 0
-2080 54 0
-2080 110 0
-2081 54 0
-2081 145 0
-2082 54 0
-2082 179 0
-2083 54 0
-2083 182 0
-2084 54 0
-2084 184 0
-2085 54 0
-2085 185 0
-2086 110 0
-2086 145 0
-2087 110 0
-2087 179 0
-2088 110 0
-2088 182 0
-2089 110 0
-2089 184 0
-2090 110 0
-2090 185 0
-2091 145 0
-2091 179 0
-2092 145 0
-2092 182 0
-2093 145 0
-2093 184 0
-2094 145 0
-2094 185 0
-2095 179 0
-2095 182 0
-2096 179 0
-2096 184 0
-2097 179 0
-2097 185 0
-2098 182 0
-2098 184 0
-2099 182 0
-2099 185 0
-2100 184 0
-2100 185 0
2080 2081 2082 2083 2084 2085 2086 2087 2088 2089 2090 2091 2092 2093 2094 2095 2096 2097 2098 2099 2100 0
-2101 55 0
-2101 111 0
-2102 55 0
-2102 146 0
-2103 55 0
-2103 176 0
-2104 55 0
-2104 186 0
-2105 55 0
-2105 187 0
-2106 55 0
-2106 188 0
-2107 111 0
-2107 146 0
-2108 111 0
-2108 176 0
-2109 111 0
-2109 186 0
-2110 111 0
-2110 187 0
-2111 111 0
-2111 188 0
-2112 146 0
-2112 176 0
-2113 146 0
-2113 186 0
-2114 146 0
-2114 187 0
-2115 146 0
-2115 188 0
-2116 176 0
-2116 186 0
-2117 176 0
-2117 187 0
-2118 176 0
-2118 188 0
-2119 186 0
-2119 187 0
-2120 186 0
-2120 188 0
-2121 187 0
-2121 188 0
2101 2102 2103 2104 2105 2106 2107 2108 2109 2110 2111 2112 2113 2114 2115 2116 2117 2118 2119 2120 2121 0
-2122 56 0
-2122 112 0
-2123 56 0
-2123 147 0
-2124 56 0
-2124 177 0
-2125 56 0
-2125 186 0
-2126 56 0
-2126 189 0
-2127 56 0
-2127 190 0
-2128 112 0
-2128 147 0
-2129 112 0
-2129 177 0
-2130 112 0
-2130 186 0
-2131 112 0
-2131 189 0
-2132 112 0
-2132 190 0
-2133 147 0
-2133 177 0
-2134 147 0
-2134 186 0
-2135 147 0
-2135 189 0
-2136 147 0
-2136 190 0
-2137 177 0
-2137 186 0
-2138 177 0
-2138 189 0
-2139 177 0
-2139 190 0
-2140 186 0
-2140 189 0
-2141 186 0
-2141 190 0
-2142 189 0
-2142 190 0
2122 2123 2124 2125 2126 2127 2128 2129 2130 2131 2132 2133 2134 2135 2136 2137 2138 2139 2140 2141 2142 0
-2143 57 0
-2143 113 0
-2144 57 0
-2144 148 0
-2145 57 0
-2145 178 0
-2146 57 0
-2146 187 0
-2147 57 0
-2147 189 0
-2148 57 0
-2148 191 0
-2149 113 0
-2149 148 0
-2150 113 0
-2150 178 0
-2151 113 0
-2151 187 0
-2152 113 0
-2152 189 0
-2153 113 0
-2153 191 0
-2154 148 0
-2154 178 0
-2155 148 0
-2155 187 0
-2156 148 0
-2156 189 0
-2157 148 0
-2157 191 0
-2158 178 0
-2158 187 0
-2159 178 0
-2159 189 0
-2160 178 0
-2160 191 0
-2161 187 0
-2161 189 0
-2162 187 0
-2162 191 0
-2163 189 0
-2163 191 0
2143 2144 2145 2146 2147 2148 2149 2150 2151 2152 2153 2154 2155 2156 2157 2158 2159 2160 2161 2162 2163 0
-2164 58 0
-2164 114 0
-2165 58 0
-2165 149 0
-2166 58 0
-2166 179 0
-2167 58 0
-2167 188 0
-2168 58 0
-2168 190 0
-2169 58 0
-2169 191 0
-2170 114 0
-2170 149 0
-2171 114 0
-2171 179 0
-2172 114 0
-2172 188 0
-2173 114 0
-2173 190 0
-2174 114 0
-2174 191 0
-2175 149 0
-2175 179 0
-2176 149 0
-2176 188 0
-2177 149 0
-2177 190 0
-2178 149 0
-2178 191 0
-2179 179 0
-2179 188 0
-2180 179 0
-2180 190 0
-2181 179 0
-2181 191 0
-2182 188 0
-2182 190 0
-2183 188 0
-2183 191 0
-2184 190 0
-2184 191 0
2164 2165 2166 2167 2168 2169 2170 2171 2172 2173 2174 2175 2176 2177 2178 2179 2180 2181 2182 2183 2184 0
-2185 59 0
-2185 115 0
-2186 59 0
-2186 150 0
-2187 59 0
-2187 180 0
-2188 59 0
-2188 186 0
-2189 59 0
-2189 192 0
-2190 59 0
-2190 193 0
-2191 115 0
-2191 150 0
-2192 115 0
-2192 180 0
-2193 115 0
-2193 186 0
-2194 115 0
-2194 192 0
-2195 115 0
-2195 193 0
-2196 150 0
-2196 180 0
-2197 150 0
-2197 186 0
-2198 150 0
-2198 192 0
-2199 150 0
-2199 193 0
-2200 180 0
-2200 186 0
-2201 180 0
-2201 192 0
-2202 180 0
-2202 193 0
-2203 186 0
-2203 192 0
-2204 186 0
-2204 193 0
-2205 192 0
-2205 193 0
2185 2186 2187 2188 2189 2190 2191 2192 2193 2194 2195 2196 2197 2198 2199 2200 2201 2202 2203 2204 2205 0
-2206 60 0
-2206 116 0
-2207 60 0
-2207 151 0
-2208 60 0
-2208 181 0
-2209 60 0
-2209 187 0
-2210 60 0
-2210 192 0
-2211 60 0
-2211 194 0
-2212 116 0
-2212 151 0
-2213 116 0
-2213 181 0
-2214 116 0
-2214 187 0
-2215 116 0
-2215 192 0
-2216 116 0
-2216 194 0
-2217 151 0
-2217 181 0
-2218 151 0
-2218 187 0
-2219 151 0
-2219 192 0
-2220 151 0
-2220 194 0
-2221 181 0
-2221 187 0
-2222 181 0
-2222 192 0
-2223 181 0
-2223 194 0
-2224 187 0
-2224 192 0
-2225 187 0
-2225 194 0
-2226 192 0
-2226 194 0
2206 2207 2208 2209 2210 2211 2212 2213 2214 2215 2216 2217 2218 2219 2220 2221 2222 2223 2224 2225 2226 0
-2227 61 0
-2227 117 0
-2228 61 0
-2228 152 0
-2229 61 0
-2229 182 0
-2230 61 0
-2230 188 0
-2231 61 0
-2231 193 0
-2232 61 0
-2232 194 0
-2233 117 0
-2233 152 0
-2234 117 0
-2234 182 0
-2235 117 0
-2235 188 0
-2236 117 0
-2236 193 0
-2237 117 0
-2237 194 0
-2238 152 0
-2238 182 0
-2239 152 0
-2239 188 0
-2240 152 0
-2240 193 0
-2241 152 0
-2241 194 0
-2242 182 0
-2242 188 0
-2243 182 0
-2243 193 0
-2244 182 0
-2244 194 0
-2245 188 0
-2245 193 0
-2246 188 0
-2246 194 0
-2247 193 0
-2247 194 0
2227 2228 2229 2230 2231 2232 2233 2234 2235 2236 2237 2238 2239 2240 2241 2242 2243 2244 2245 2246 2247 0
-2248 62 0
-2248 118 0
-2249 62 0
-2249 153 0
-2250 62 0
-2250 183 0
-2251 62 0
-2251 189 0
-2252 62 0
-2252 192 0
-2253 62 0
-2253 195 0
-2254 118 0
-2254 153 0
-2255 118 0
-2255 183 0
-2256 118 0
-2256 189 0
-2257 118 0
-2257 192 0
-2258 118 0
-2258 195 0
-2259 153 0
-2259 183 0
-2260 153 0
-2260 189 0
-2261 153 0
-2261 192 0
-2262 153 0
-2262 195 0
-2263 183 0
-2263 189 0
-2264 183 0
-2264 192 0
-2265 183 0
-2265 195 0
-2266 189 0
-2266 192 0
-2267 189 0
-2267 195 0
-2268 192 0
-2268 195 0
2248 2249 2250 2251 2252 2253 2254 2255 2256 2257 2258 2259 2260 2261 2262 2263 2264 2265 2266 2267 2268 0
-2269 63 0
-2269 119 0
-2270 63 0
-2270 154 0
-2271 63 0
-2271 184 0
-2272 63 0
-2272 190 0
-2273 63 0
-2273 193 0
-2274 63 0
-2274 195 0
-2275 119 0
-2275 154 0
-2276 119 0
-2276 184 0
-2277 119 0
-2277 190 0
-2278 119 0
-2278 193 0
-2279 119 0
-2279 195 0
-2280 154 0
-2280 184 0
-2281 154 0
-2281 190 0
-2282 154 0
-2282 193 0
-2283 154 0
-2283 195 0
-2284 184 0
-2284 190 0
-2285 184 0
-2285 193 0
-2286 184 0
-2286 195 0
-2287 190 0
-2287 193 0
-2288 190 0
-2288 195 0
-2289 193 0
-2289 195 0
2269 2270 2271 2272 2273 2274 2275 2276 2277 2278 2279 2280 2281 2282 2283 2284 2285 2286 2287 2288 2289 0
-2290 64 0
-2290 120 0
-2291 64 0
-2291 155 0
-2292 64 0
-2292 185 0
-2293 64 0
-2293 191 0
-2294 64 0
-2294 194 0
-2295 64 0
-2295 195 0
-2296 120 0
-2296 155 0
-2297 120 0
-2297 185 0
-2298 120 0
-2298 191 0
-2299 120 0
-2299 194 0
-2300 120 0
-2300 195 0
-2301 155 0
-2301 185 0
-2302 155 0
-2302 191 0
-2303 155 0
-2303 194 0
-2304 155 0
-2304 195 0
-2305 185 0
-2305 191 0
-2306 185 0
-2306 194 0
-2307 185 0
-2307 195 0
-2308 191 0
-2308 194 0
-2309 191 0
-2309 195 0
-2310 194 0
-2310 195 0
2290 2291 2292 2293 2294 2295 2296 2297 2298 2299 2300 2301 2302 2303 2304 2305 2306 2307 2308 2309 2310 0
-2311 65 0
-2311 121 0
-2312 65 0
-2312 156 0
-2313 65 0
-2313 176 0
-2314 65 0
-2314 196 0
-2315 65 0
-2315 197 0
-2316 65 0
-2316 198 0
-2317 121 0
-2317 156 0
-2318 121 0
-2318 176 0
-2319 121 0
-2319 196 0
-2320 121 0
-2320 197 0
-2321 121 0
-2321 198 0
-2322 156 0
-2322 176 0
-2323 156 0
-2323 196 0
-2324 156 0
-2324 197 0
-2325 156 0
-2325 198 0
-2326 176 0
-2326 196 0
-2327 176 0
-2327 197 0
-2328 176 0
-2328 198 0
-2329 196 0
-2329 197 0
-2330 196 0
-2330 198 0
-2331 197 0
-2331 198 0
2311 2312 2313 2314 2315 2316 2317 2318 2319 2320 2321 2322 2323 2324 2325 2326 2327 2328 2329 2330 2331 0
-2332 66 0
-2332 122 0
-2333 66 0
-2333 157 0
-2334 66 0
-2334 177 0
-2335 66 0
-2335 196 0
-2336 66 0
-2336 199 0
-2337 66 0
-2337 200 0
-2338 122 0
-2338 157 0
-2339 122 0
-2339 177 0
-2340 122 0
-2340 196 0
-2341 122 0
-2341 199 0
-2342 122 0
-2342 200 0
-2343 157 0
-2343 177 0
-2344 157 0
-2344 196 0
-2345 157 0
-2345 199 0
-2346 157 0
-2346 200 0
-2347 177 0
-2347 196 0
-2348 177 0
-2348 199 0
-2349 177 0
-2349 200 0
-2350 196 0
-2350 199 0
-2351 196 0
-2351 200 0
-2352 199 0
-2352 200 0
2332 2333 2334 2335 2336 2337 2338 2339 2340 2341 2342 2343 2344 2345 2346 2347 2348 2349 2350 2351 2352 0
-2353 67 0
-2353 123 0
-2354 67 0
-2354 158 0
-2355 67 0
-2355 178 0
-2356 67 0
-2356 197 0
-2357 67 0
-2357 199 0
-2358 67 0
-2358 201 0
-2359 123 0
-2359 158 0
-2360 123 0
-2360 178 0
-2361 123 0
-2361 197 0
-2362 123 0
-2362 199 0
-2363 123 0
-2363 201 0
-2364 158 0
-2364 178 0
-2365 158 0
-2365 197 0
-2366 158 0
-2366 199 0
-2367 158 0
-2367 201 0
-2368 178 0
-2368 197 0
-2369 178 0
-2369 199 0
-2370 178 0
-2370 201 0
-2371 197 0
-2371 199 0
-2372 197 0
-2372 201 0
-2373 199 0
-2373 201 0
2353 2354 2355 2356 2357 2358 2359 2360 2361 2362 2363 2364 2365 2366 2367 2368 2369 2370 2371 2372 2373 0
-2374 68 0
-2374 124 0
-2375 68 0
-2375 159 0
-2376 68 0
-2376 179 0
-2377 68 0
-2377 198 0
-2378 68 0
-2378 200 0
-2379 68 0
-2379 201 0
-2380 124 0
-2380 159 0
-2381 124 0
-2381 179 0
-2382 124 0
-2382 198 0
-2383 124 0
-2383 200 0
-2384 124 0
-2384 201 0
-2385 159 0
-2385 179 0
-2386 159 0
-2386 198 0
-2387 159 0
-2387 200 0
-2388 159 0
-2388 201 0
-2389 179 0
-2389 198 0
-2390 179 0
-2390 200 0
-2391 179 0
-2391 201 0
-2392 198 0
-2392 200 0
-2393 198 0
-2393 201 0
-2394 200 0
-2394 201 0
2374 2375 2376 2377 2378 2379 2380 2381 2382 2383 2384 2385 2386 2387 2388 2389 2390 2391 2392 2393 2394 0
-2395 69 0
-2395 125 0
-2396 69 0
-2396 160 0
-2397 69 0
-2397 180 0
-2398 69 0
-2398 196 0
-2399 69 0
-2399 202 0
-2400 69 0
-2400 203 0
-2401 125 0
-2401 160 0
-2402 125 0
-2402 180 0
-2403 125 0
-2403 196 0
-2404 125 0
-2404 202 0
-2405 125 0
-2405 203 0
-2406 160 0
-2406 180 0
-2407 160 0
-2407 196 0
-2408 160 0
-2408 202 0
-2409 160 0
-2409 203 0
-2410 180 0
-2410 196 0
-2411 180 0
-2411 202 0
-2412 180 0
-2412 203 0
-2413 196 0
-2413 202 0
-2414 196 0
-2414 203 0
-2415 202 0
-2415 203 0
2395 2396 2397 2398 2399 2400 2401 2402 2403 2404 2405 2406 2407 2408 2409 2410 2411 2412 2413 2414 2415 0
-2416 70 0
-2416 126 0
-2417 70 0
-2417 161 0
-2418 70 0
-2418 181 0
-2419 70 0
-2419 197 0
-2420 70 0
-2420 202 0
-2421 70 0
-2421 204 0
-2422 126 0
-2422 161 0
-2423 126 0
-2423 181 0
-2424 126 0
-2424 197 0
-2425 126 0
-2425 202 0
-2426 126 0
-2426 204 0
-2427 161 0
-2427 181 0
-2428 161 0
-2428 197 0
-2429 161 0
-2429 202 0
-2430 161 0
-2430 204 0
-2431 181 0
-2431 197 0
-2432 181 0
-2432 202 0
-2433 181 0
-2433 204 0
-2434 197 0
-2434 202 0
-2435 197 0
-2435 204 0
-2436 202 0
-2436 204 0
2416 2417 2418 2419 2420 2421 2422 2423 2424 2425 2426 2427 2428 2429 2430 2431 2432 2433 2434 2435 2436 0
-2437 71 0
-2437 127 0
-2438 71 0
-2438 162 0
-2439 71 0
-2439 182 0
-2440 71 0
-2440 198 0
-2441 71 0
-2441 203 0
-2442 71 0
-2442 204 0
-2443 127 0
-2443 162 0
-2444 127 0
-2444 182 0
-2445 127 0
-2445 198 0
-2446 127 0
-2446 203 0
-2447 127 0
-2447 204 0
-2448 162 0
-2448 182 0
-2449 162 0
-2449 198 0
-2450 162 0
-2450 203 0
-2451 162 0
-2451 204 0
-2452 182 0
-2452 198 0
-2453 182 0
-2453 203 0
-2454 182 0
-2454 204 0
-2455 198 0
-2455 203 0
-2456 198 0
-2456 204 0
-2457 203 0
-2457 204 0
2437 2438 2439 2440 2441 2442 2443 2444 2445 2446 2447 2448 2449 2450 2451 2452 2453 2454 2455 2456 2457 0
-2458 72 0
-2458 128 0
-2459 72 0
-2459 163 0
-2460 72 0
-2460 183 0
-2461 72 0
-2461 199 0
-2462 72 0
-2462 202 0
-2463 72 0
-2463 205 0
-2464 128 0
-2464 163 0
-2465 128 0
-2465 183 0
-2466 128 0
-2466 199 0
-2467 128 0
-2467 202 0
-2468 128 0
-2468 205 0
-2469 163 0
-2469 183 0
-2470 163 0
-2470 199 0
-2471 163 0
-2471 202 0
-2472 163 0
-2472 205 0
-2473 183 0
-2473 199 0
-2474 183 0
-2474 202 0
-2475 183 0
-2475 205 0
-2476 199 0
-2476 202 0
-2477 199 0
-2477 205 0
-2478 202 0
-2478 205 0
2458 2459 2460 2461 2462 2463 2464 2465 2466 2467 2468 2469 2470 2471 2472 2473 2474 2475 2476 2477 2478 0
-2479 73 0
-2479 129 0
-2480 73 0
-2480 164 0
-2481 73 0
-2481 184 0
-2482 73 0
-2482 200 0
-2483 73 0
-2483 203 0
-2484 73 0
-2484 205 0
-2485 129 0
-2485 164 0
-2486 129 0
-2486 184 0
-2487 129 0
-2487 200 0
-2488 129 0
-2488 203 0
-2489 129 0
-2489 205 0
-2490 164 0
-2490 184 0
-2491 164 0
-2491 200 0
-2492 164 0
-2492 203 0
-2493 164 0
-2493 205 0
-2494 184 0
-2494 200 0
-2495 184 0
-2495 203 0
-2496 184 0
-2496 205 0
-2497 200 0
-2497 203 0
-2498 200 0
-2498 205 0
-2499 203 0
-2499 205 0
2479 2480 2481 2482 2483 2484 2485 2486 2487 2488 2489 2490 2491 2492 2493 2494 2495 2496 2497 2498 2499 0
-2500 74 0
-2500 130 0
-2501 74 0
-2501 165 0
-2502 74 0
-2502 185 0
-2503 74 0
-2503 201 0
-2504 74 0
-2504 204 0
-2505 74 0
-2505 205 0
-2506 130 0
-2506 165 0
-2507 130 0
-2507 185 0
-2508 130 0
-2508 201 0
-2509 130 0
-2509 204 0
-2510 130 0
-2510 205 0
-2511 165 0
-2511 185 0
-2512 165 0
-2512 201 0
-2513 165 0
-2513 204 0
-2514 165 0
-2514 205 0
-2515 185 0
-2515 201 0
-2516 185 0
-2516 204 0
-2517 185 0
-2517 205 0
-2518 201 0
-2518 204 0
-2519 201 0
-2519 205 0
-2520 204 0
-2520 205 0
2500 2501 2502 2503 2504 2505 2506 2507 2508 2509 2510 2511 2512 2513 2514 2515 2516 2517 2518 2519 2520 0
-2521 75 0
-2521 131 0
-2522 75 0
-2522 166 0
-2523 75 0
-2523 186 0
-2524 75 0
-2524 196 0
-2525 75 0
-2525 206 0
-2526 75 0
-2526 207 0
-2527 131 0
-2527 166 0
-2528 131 0
-2528 186 0
-2529 131 0
-2529 196 0
-2530 131 0
-2530 206 0
-2531 131 0
-2531 207 0
-2532 166 0
-2532 186 0
-2533 166 0
-2533 196 0
-2534 166 0
-2534 206 0
-2535 166 0
-2535 207 0
-2536 186 0
-2536 196 0
-2537 186 0
-2537 206 0
-2538 186 0
-2538 207 0
-2539 196 0
-2539 206 0
-2540 196 0
-2540 207 0
-2541 206 0
-2541 207 0
2521 2522 2523 2524 2525 2526 2527 2528 2529 2530 2531 2532 2533 2534 2535 2536 2537 2538 2539 2540 2541 0
-2542 76 0
-2542 132 0
-2543 76 0
-2543 167 0
-2544 76 0
-2544 187 0
-2545 76 0
-2545 197 0
-2546 76 0
-2546 206 0
-2547 76 0
-2547 208 0
-2548 132 0
-2548 167 0
-2549 132 0
-2549 187 0
-2550 132 0
-2550 197 0
-2551 132 0
-2551 206 0
-2552 132 0
-2552 208 0
-2553 167 0
-2553 187 0
-2554 167 0
-2554 197 0
-2555 167 0
-2555 206 0
-2556 167 0
-2556 208 0
-2557 187 0
-2557 197 0
-2558 187 0
-2558 206 0
-2559 187 0
-2559 208 0
-2560 197 0
-2560 206 0
-2561 197 0
-2561 208 0
-2562 206 0
-2562 208 0
2542 2543 2544 2545 2546 2547 2548 2549 2550 2551 2552 2553 2554 2555 2556 2557 2558 2559 2560 2561 2562 0
-2563 77 0
-2563 133 0
-2564 77 0
-2564 168 0
-2565 77 0
-2565 188 0
-2566 77 0
-2566 198 0
-2567 77 0
-2567 207 0
-2568 77 0
-2568 208 0
-2569 133 0
-2569 168 0
-2570 133 0
-2570 188 0
-2571 133 0
-2571 198 0
-2572 133 0
-2572 207 0
-2573 133 0
-2573 208 0
-2574 168 0
-2574 188 0
-2575 168 0
-2575 198 0
-2576 168 0
-2576 207 0
-2577 168 0
-2577 208 0
-2578 188 0
-2578 198 0
-2579 188 0
-2579 207 0
-2580 188 0
-2580 208 0
-2581 198 0
-2581 207 0
-2582 198 0
-2582 208 0
-2583 207 0
-2583 208 0
2563 2564 2565 2566 2567 2568 2569 2570 2571 2572 2573 2574 2575 2576 2577 2578 2579 2580 2581 2582 2583 0
-2584 78 0
-2584 134 0
-2585 78 0
-2585 169 0
-2586 78 0
-2586 189 0
-2587 78 0
-2587 199 0
-2588 78 0
-2588 206 0
-2589 78 0
-2589 209 0
-2590 134 0
-2590 169 0
-2591 134 0
-2591 189 0
-2592 134 0
-2592 199 0
-2593 134 0
-2593 206 0
-2594 134 0
-2594 209 0
-2595 169 0
-2595 189 0
-2596 169 0
-2596 199 0
-2597 169 0
-2597 206 0
-2598 169 0
-2598 209 0
-2599 189 0
-2599 199 0
-2600 189 0
-2600 206 0
-2601 189 0
-2601 209 0
-2602 199 0
-2602 206 0
-2603 199 0
-2603 209 0
-2604 206 0
-2604 209 0
2584 2585 2586 2587 2588 2589 2590 2591 2592 2593 2594 2595 2596 2597 2598 2599 2600 2601 2602 2603 2604 0
-2605 79 0
-2605 135 0
-2606 79 0
-2606 170 0
-2607 79 0
-2607 190 0
-2608 79 0
-2608 200 0
-2609 79 0
-2609 207 0
-2610 79 0
-2610 209 0
-2611 135 0
-2611 170 0
-2612 135 0
-2612 190 0
-2613 135 0
-2613 200 0
-2614 135 0
-2614 207 0
-2615 135 0
-2615 209 0
-2616 170 0
-2616 190 0
-2617 170 0
-2617 200 0
-2618 170 0
-2618 207 0
-2619 170 0
-2619 209 0
-2620 190 0
-2620 200 0
-2621 190 0
-2621 207 0
-2622 190 0
-2622 209 0
-2623 200 0
-2623 207 0
-2624 200 0
-2624 209 0
-2625 207 0
-2625 209 0
2605 2606 2607 2608 2609 2610 2611 2612 2613 2614 2615 2616 2617 2618 2619 2620 2621 2622 2623 2624 2625 0
-2626 80 0
-2626 136 0
-2627 80 0
-2627 171 0
-2628 80 0
-2628 191 0
-2629 80 0
-2629 201 0
-2630 80 0
-2630 208 0
-2631 80 0
-2631 209 0
-2632 136 0
-2632 171 0
-2633 136 0
-2633 191 0
-2634 136 0
-2634 201 0
-2635 136 0
-2635 208 0
-2636 136 0
-2636 209 0
-2637 171 0
-2637 191 0
-2638 171 0
-2638 201 0
-2639 171 0
-2639 208 0
-2640 171 0
-2640 209 0
-2641 191 0
-2641 201 0
-2642 191 0
-2642 208 0
-2643 191 0
-2643 209 0
-2644 201 0
-2644 208 0
-2645 201 0
-2645 209 0
-2646 208 0
-2646 209 0
2626 2627 2628 2629 2630 2631 2632 2633 2634 2635 2636 2637 2638 2639 2640 2641 2642 2643 2644 2645 2646 0
-2647 81 0
-2647 137 0
-2648 81 0
-2648 172 0
-2649 81 0
-2649 192 0
-2650 81 0
-2650 202 0
-2651 81 0
-2651 206 0
-2652 81 0
-2652 210 0
-2653 137 0
-2653 172 0
-2654 137 0
-2654 192 0
-2655 137 0
-2655 202 0
-2656 137 0
-2656 206 0
-2657 137 0
-2657 210 0
-2658 172 0
-2658 192 0
-2659 172 0
-2659 202 0
-2660 172 0
-2660 206 0
-2661 172 0
-2661 210 0
-2662 192 0
-2662 202 0
-2663 192 0
-2663 206 0
-2664 192 0
-2664 210 0
-2665 202 0
-2665 206 0
-2666 202 0
-2666 210 0
-2667 206 0
-2667 210 0
2647 2648 2649 2650 2651 2652 2653 2654 2655 2656 2657 2658 2659 2660 2661 2662 2663 2664 2665 2666 2667 0
-2668 82 0
-2668 138 0
-2669 82 0
-2669 173 0
-2670 82 0
-2670 193 0
-2671 82 0
-2671 203 0
-2672 82 0
-2672 207 0
-2673 82 0
-2673 210 0
-2674 138 0
-2674 173 0
-2675 138 0
-2675 193 0
-2676 138 0
-2676 203 0
-2677 138 0
-2677 207 0
-2678 138 0
-2678 210 0
-2679 173 0
-2679 193 0
-2680 173 0
-2680 203 0
-2681 173 0
-2681 207 0
-2682 173 0
-2682 210 0
-2683 193 0
-2683 203 0
-2684 193 0
-2684 207 0
-2685 193 0
-2685 210 0
-2686 203 0
-2686 207 0
-2687 203 0
-2687 210 0
-2688 207 0
-2688 210 0
2668 2669 2670 2671 2672 2673 2674 2675 2676 2677 2678 2679 2680 2681 2682 2683 2684 2685 2686 2687 2688 0
-2689 83 0
-2689 139 0
-2690 83 0
-2690 174 0
-2691 83 0
-2691 194 0
-2692 83 0
-2692 204 0
-2693 83 0
-2693 208 0
-2694 83 0
-2694 210 0
-2695 139 0
-2695 174 0
-2696 139 0
-2696 194 0
-2697 139 0
-2697 204 0
-2698 139 0
-2698 208 0
-2699 139 0
-2699 210 0
-2700 174 0
-2700 194 0
-2701 174 0
-2701 204 0
-2702 174 0
-2702 208 0
-2703 174 0
-2703 210 0
-2704 194 0
-2704 204 0
-2705 194 0
-2705 208 0
-2706 194 0
-2706 210 0
-2707 204 0
-2707 208 0
-2708 204 0
-2708 210 0
-2709 208 0
-2709 210 0
2689 2690 2691 2692 2693 2694 2695 2696 2697 2698 2699 2700 2701 2702 2703 2704 2705 2706 2707 2708 2709 0
-2710 84 0
-2710 140 0
-2711 84 0
-2711 175 0
-2712 84 0
-2712 195 0
-2713 84 0
-2713 205 0
-2714 84 0
-2714 209 0
-2715 84 0
-2715 210 0
-2716 140 0
-2716 175 0
-2717 140 0
-2717 195 0
-2718 140 0
-2718 205 0
-2719 140 0
-2719 209 0
-2720 140 0
-2720 210 0
-2721 175 0
-2721 195 0
-2722 175 0
-2722 205 0
-2723 175 0
-2723 209 0
-2724 175 0
-2724 210 0
-2725 195 0
-2725 205 0
-2726 195 0
-2726 209 0
-2727 195 0
-2727 210 0
-2728 205 0
-2728 209 0
-2729 205 0
-2729 210 0
-2730 209 0
-2730 210 0
2710 2711 2712 2713 2714 2715 2716 2717 2718 2719 2720 2721 2722 2723 2724 2725 2726 2727 2728 2729 2730 0
