c independent witness-pair encoding of the exact PB feasibility problem
c n 8
c primary variables 1 through 70 are lexicographic 4-subsets
p cnf 630 1211
-1 -70 0
-2 -69 0
-3 -68 0
-4 -67 0
-5 -66 0
-6 -65 0
-7 -64 0
-8 -63 0
-9 -62 0
-10 -61 0
-11 -60 0
-12 -59 0
-13 -58 0
-14 -57 0
-15 -56 0
-16 -55 0
-17 -54 0
-18 -53 0
-19 -52 0
-20 -51 0
-21 -50 0
-22 -49 0
-23 -48 0
-24 -47 0
-25 -46 0
-26 -45 0
-27 -44 0
-28 -43 0
-29 -42 0
-30 -41 0
-31 -40 0
-32 -39 0
-33 -38 0
-34 -37 0
-35 -36 0
-71 1 0
-71 2 0
-72 1 0
-72 3 0
-73 1 0
-73 4 0
-74 1 0
-74 5 0
-75 2 0
-75 3 0
-76 2 0
-76 4 0
-77 2 0
-77 5 0
-78 3 0
-78 4 0
-79 3 0
-79 5 0
-80 4 0
-80 5 0
71 72 73 74 75 76 77 78 79 80 0
-81 1 0
-81 6 0
-82 1 0
-82 7 0
-83 1 0
-83 8 0
-84 1 0
-84 9 0
-85 6 0
-85 7 0
-86 6 0
-86 8 0
-87 6 0
-87 9 0
-88 7 0
-88 8 0
-89 7 0
-89 9 0
-90 8 0
-90 9 0
81 82 83 84 85 86 87 88 89 90 0
-91 2 0
-91 6 0
-92 2 0
-92 10 0
-93 2 0
-93 11 0
-94 2 0
-94 12 0
-95 6 0
-95 10 0
-96 6 0
-96 11 0
-97 6 0
-97 12 0
-98 10 0
-98 11 0
-99 10 0
-99 12 0
-100 11 0
-100 12 0
91 92 93 94 95 96 97 98 99 100 0
-101 3 0
-101 7 0
-102 3 0
-102 10 0
-103 3 0
-103 13 0
-104 3 0
-104 14 0
-105 7 0
-105 10 0
-106 7 0
-106 13 0
-107 7 0
-107 14 0
-108 10 0
-108 13 0
-109 10 0
-109 14 0
-110 13 0
-110 14 0
101 102 103 104 105 106 107 108 109 110 0
-111 4 0
-111 8 0
-112 4 0
-112 11 0
-113 4 0
-113 13 0
-114 4 0
-114 15 0
-115 8 0
-115 11 0
-116 8 0
-116 13 0
-117 8 0
-117 15 0
-118 11 0
-118 13 0
-119 11 0
-119 15 0
-120 13 0
-120 15 0
111 112 113 114 115 116 117 118 119 120 0
-121 5 0
-121 9 0
-122 5 0
-122 12 0
-123 5 0
-123 14 0
-124 5 0
-124 15 0
-125 9 0
-125 12 0
-126 9 0
-126 14 0
-127 9 0
-127 15 0
-128 12 0
-128 14 0
-129 12 0
-129 15 0
-130 14 0
-130 15 0
121 122 123 124 125 126 127 128 129 130 0
-131 1 0
-131 16 0
-132 1 0
-132 17 0
-133 1 0
-133 18 0
-134 1 0
-134 19 0
-135 16 0
-135 17 0
-136 16 0
-136 18 0
-137 16 0
-137 19 0
-138 17 0
-138 18 0
-139 17 0
-139 19 0
-140 18 0
-140 19 0
131 132 133 134 135 136 137 138 139 140 0
-141 2 0
-141 16 0
-142 2 0
-142 20 0
-143 2 0
-143 21 0
-144 2 0
-144 22 0
-145 16 0
-145 20 0
-146 16 0
-146 21 0
-147 16 0
-147 22 0
-148 20 0
-148 21 0
-149 20 0
-149 22 0
-150 21 0
-150 22 0
141 142 143 144 145 146 147 148 149 150 0
-151 3 0
-151 17 0
-152 3 0
-152 20 0
-153 3 0
-153 23 0
-154 3 0
-154 24 0
-155 17 0
-155 20 0
-156 17 0
-156 23 0
-157 17 0
-157 24 0
-158 20 0
-158 23 0
-159 20 0
-159 24 0
-160 23 0
-160 24 0
151 152 153 154 155 156 157 158 159 160 0
-161 4 0
-161 18 0
-162 4 0
-162 21 0
-163 4 0
-163 23 0
-164 4 0
-164 25 0
-165 18 0
-165 21 0
-166 18 0
-166 23 0
-167 18 0
-167 25 0
-168 21 0
-168 23 0
-169 21 0
-169 25 0
-170 23 0
-170 25 0
161 162 163 164 165 166 167 168 169 170 0
-171 5 0
-171 19 0
-172 5 0
-172 22 0
-173 5 0
-173 24 0
-174 5 0
-174 25 0
-175 19 0
-175 22 0
-176 19 0
-176 24 0
-177 19 0
-177 25 0
-178 22 0
-178 24 0
-179 22 0
-179 25 0
-180 24 0
-180 25 0
171 172 173 174 175 176 177 178 179 180 0
-181 6 0
-181 16 0
-182 6 0
-182 26 0
-183 6 0
-183 27 0
-184 6 0
-184 28 0
-185 16 0
-185 26 0
-186 16 0
-186 27 0
-187 16 0
-187 28 0
-188 26 0
-188 27 0
-189 26 0
-189 28 0
-190 27 0
-190 28 0
181 182 183 184 185 186 187 188 189 190 0
-191 7 0
-191 17 0
-192 7 0
-192 26 0
-193 7 0
-193 29 0
-194 7 0
-194 30 0
-195 17 0
-195 26 0
-196 17 0
-196 29 0
-197 17 0
-197 30 0
-198 26 0
-198 29 0
-199 26 0
-199 30 0
-200 29 0
-200 30 0
191 192 193 194 195 196 197 198 199 200 0
-201 8 0
-201 18 0
-202 8 0
-202 27 0
-203 8 0
-203 29 0
-204 8 0
-204 31 0
-205 18 0
-205 27 0
-206 18 0
-206 29 0
-207 18 0
-207 31 0
-208 27 0
-208 29 0
-209 27 0
-209 31 0
-210 29 0
-210 31 0
201 202 203 204 205 206 207 208 209 210 0
-211 9 0
-211 19 0
-212 9 0
-212 28 0
-213 9 0
-213 30 0
-214 9 0
-214 31 0
-215 19 0
-215 28 0
-216 19 0
-216 30 0
-217 19 0
-217 31 0
-218 28 0
-218 30 0
-219 28 0
-219 31 0
-220 30 0
-220 31 0
211 212 213 214 215 216 217 218 219 220 0
-221 10 0
-221 20 0
-222 10 0
-222 26 0
-223 10 0
-223 32 0
-224 10 0
-224 33 0
-225 20 0
-225 26 0
-226 20 0
-226 32 0
-227 20 0
-227 33 0
-228 26 0
-228 32 0
-229 26 0
-229 33 0
-230 32 0
-230 33 0
221 222 223 224 225 226 227 228 229 230 0
-231 11 0
-231 21 0
-232 11 0
-232 27 0
-233 11 0
-233 32 0
-234 11 0
-234 34 0
-235 21 0
-235 27 0
-236 21 0
-236 32 0
-237 21 0
-237 34 0
-238 27 0
-238 32 0
-239 27 0
-239 34 0
-240 32 0
-240 34 0
231 232 233 234 235 236 237 238 239 240 0
-241 12 0
-241 22 0
-242 12 0
-242 28 0
-243 12 0
-243 33 0
-244 12 0
-244 34 0
-245 22 0
-245 28 0
-246 22 0
-246 33 0
-247 22 0
-247 34 0
-248 28 0
-248 33 0
-249 28 0
-249 34 0
-250 33 0
-250 34 0
241 242 243 244 245 246 247 248 249 250 0
-251 13 0
-251 23 0
-252 13 0
-252 29 0
-253 13 0
-253 32 0
-254 13 0
-254 35 0
-255 23 0
-255 29 0
-256 23 0
-256 32 0
-257 23 0
-257 35 0
-258 29 0
-258 32 0
-259 29 0
-259 35 0
-260 32 0
-260 35 0
251 252 253 254 255 256 257 258 259 260 0
-261 14 0
-261 24 0
-262 14 0
-262 30 0
-263 14 0
-263 33 0
-264 14 0
-264 35 0
-265 24 0
-265 30 0
-266 24 0
-266 33 0
-267 24 0
-267 35 0
-268 30 0
-268 33 0
-269 30 0
-269 35 0
-270 33 0
-270 35 0
261 262 263 264 265 266 267 268 269 270 0
-271 15 0
-271 25 0
-272 15 0
-272 31 0
-273 15 0
-273 34 0
-274 15 0
-274 35 0
-275 25 0
-275 31 0
-276 25 0
-276 34 0
-277 25 0
-277 35 0
-278 31 0
-278 34 0
-279 31 0
-279 35 0
-280 34 0
-280 35 0
271 272 273 274 275 276 277 278 279 280 0
-281 1 0
-281 36 0
-282 1 0
-282 37 0
-283 1 0
-283 38 0
-284 1 0
-284 39 0
-285 36 0
-285 37 0
-286 36 0
-286 38 0
-287 36 0
-287 39 0
-288 37 0
-288 38 0
-289 37 0
-289 39 0
-290 38 0
-290 39 0
281 282 283 284 285 286 287 288 289 290 0
-291 2 0
-291 36 0
-292 2 0
-292 40 0
-293 2 0
-293 41 0
-294 2 0
-294 42 0
-295 36 0
-295 40 0
-296 36 0
-296 41 0
-297 36 0
-297 42 0
-298 40 0
-298 41 0
-299 40 0
-299 42 0
-300 41 0
-300 42 0
291 292 293 294 295 296 297 298 299 300 0
-301 3 0
-301 37 0
-302 3 0
-302 40 0
-303 3 0
-303 43 0
-304 3 0
-304 44 0
-305 37 0
-305 40 0
-306 37 0
-306 43 0
-307 37 0
-307 44 0
-308 40 0
-308 43 0
-309 40 0
-309 44 0
-310 43 0
-310 44 0
301 302 303 304 305 306 307 308 309 310 0
-311 4 0
-311 38 0
-312 4 0
-312 41 0
-313 4 0
-313 43 0
-314 4 0
-314 45 0
-315 38 0
-315 41 0
-316 38 0
-316 43 0
-317 38 0
-317 45 0
-318 41 0
-318 43 0
-319 41 0
-319 45 0
-320 43 0
-320 45 0
311 312 313 314 315 316 317 318 319 320 0
-321 5 0
-321 39 0
-322 5 0
-322 42 0
-323 5 0
-323 44 0
-324 5 0
-324 45 0
-325 39 0
-325 42 0
-326 39 0
-326 44 0
-327 39 0
-327 45 0
-328 42 0
-328 44 0
-329 42 0
-329 45 0
-330 44 0
-330 45 0
321 322 323 324 325 326 327 328 329 330 0
-331 6 0
-331 36 0
-332 6 0
-332 46 0
-333 6 0
-333 47 0
-334 6 0
-334 48 0
-335 36 0
-335 46 0
-336 36 0
-336 47 0
-337 36 0
-337 48 0
-338 46 0
-338 47 0
-339 46 0
-339 48 0
-340 47 0
-340 48 0
331 332 333 334 335 336 337 338 339 340 0
-341 7 0
-341 37 0
-342 7 0
-342 46 0
-343 7 0
-343 49 0
-344 7 0
-344 50 0
-345 37 0
-345 46 0
-346 37 0
-346 49 0
-347 37 0
-347 50 0
-348 46 0
-348 49 0
-349 46 0
-349 50 0
-350 49 0
-350 50 0
341 342 343 344 345 346 347 348 349 350 0
-351 8 0
-351 38 0
-352 8 0
-352 47 0
-353 8 0
-353 49 0
-354 8 0
-354 51 0
-355 38 0
-355 47 0
-356 38 0
-356 49 0
-357 38 0
-357 51 0
-358 47 0
-358 49 0
-359 47 0
-359 51 0
-360 49 0
-360 51 0
351 352 353 354 355 356 357 358 359 360 0
-361 9 0
-361 39 0
-362 9 0
-362 48 0
-363 9 0
-363 50 0
-364 9 0
-364 51 0
-365 39 0
-365 48 0
-366 39 0
-366 50 0
-367 39 0
-367 51 0
-368 48 0
-368 50 0
-369 48 0
-369 51 0
-370 50 0
-370 51 0
361 362 363 364 365 366 367 368 369 370 0
-371 10 0
-371 40 0
-372 10 0
-372 46 0
-373 10 0
-373 52 0
-374 10 0
-374 53 0
-375 40 0
-375 46 0
-376 40 0
-376 52 0
-377 40 0
-377 53 0
-378 46 0
-378 52 0
-379 46 0
-379 53 0
-380 52 0
-380 53 0
371 372 373 374 375 376 377 378 379 380 0
-381 11 0
-381 41 0
-382 11 0
-382 47 0
-383 11 0
-383 52 0
-384 11 0
-384 54 0
-385 41 0
-385 47 0
-386 41 0
-386 52 0
-387 41 0
-387 54 0
-388 47 0
-388 52 0
-389 47 0
-389 54 0
-390 52 0
-390 54 0
381 382 383 384 385 386 387 388 389 390 0
-391 12 0
-391 42 0
-392 12 0
-392 48 0
-393 12 0
-393 53 0
-394 12 0
-394 54 0
-395 42 0
-395 48 0
-396 42 0
-396 53 0
-397 42 0
-397 54 0
-398 48 0
-398 53 0
-399 48 0
-399 54 0
-400 53 0
-400 54 0
391 392 393 394 395 396 397 398 399 400 0
-401 13 0
-401 43 0
-402 13 0
-402 49 0
-403 13 0
-403 52 0
-404 13 0
-404 55 0
-405 43 0
-405 49 0
-406 43 0
-406 52 0
-407 43 0
-407 55 0
-408 49 0
-408 52 0
-409 49 0
-409 55 0
-410 52 0
-410 55 0
401 402 403 404 405 406 407 408 409 410 0
-411 14 0
-411 44 0
-412 14 0
-412 50 0
-413 14 0
-413 53 0
-414 14 0
-414 55 0
-415 44 0
-415 50 0
-416 44 0
-416 53 0
-417 44 0
-417 55 0
-418 50 0
-418 53 0
-419 50 0
-419 55 0
-420 53 0
-420 55 0
411 412 413 414 415 416 417 418 419 420 0
-421 15 0
-421 45 0
-422 15 0
-422 51 0
-423 15 0
-423 54 0
-424 15 0
-424 55 0
-425 45 0
-425 51 0
-426 45 0
-426 54 0
-427 45 0
-427 55 0
-428 51 0
-428 54 0
-429 51 0
-429 55 0
-430 54 0
-430 55 0
421 422 423 424 425 426 427 428 429 430 0
-431 16 0
-431 36 0
-432 16 0
-432 56 0
-433 16 0
-433 57 0
-434 16 0
-434 58 0
-435 36 0
-435 56 0
-436 36 0
-436 57 0
-437 36 0
-437 58 0
-438 56 0
-438 57 0
-439 56 0
-439 58 0
-440 57 0
-440 58 0
431 432 433 434 435 436 437 438 439 440 0
-441 17 0
-441 37 0
-442 17 0
-442 56 0
-443 17 0
-443 59 0
-444 17 0
-444 60 0
-445 37 0
-445 56 0
-446 37 0
-446 59 0
-447 37 0
-447 60 0
-448 56 0
-448 59 0
-449 56 0
-449 60 0
-450 59 0
-450 60 0
441 442 443 444 445 446 447 448 449 450 0
-451 18 0
-451 38 0
-452 18 0
-452 57 0
-453 18 0
-453 59 0
-454 18 0
-454 61 0
-455 38 0
-455 57 0
-456 38 0
-456 59 0
-457 38 0
-457 61 0
-458 57 0
-458 59 0
-459 57 0
-459 61 0
-460 59 0
-460 61 0
451 452 453 454 455 456 457 458 459 460 0
-461 19 0
-461 39 0
-462 19 0
-462 58 0
-463 19 0
-463 60 0
-464 19 0
-464 61 0
-465 39 0
-465 58 0
-466 39 0
-466 60 0
-467 39 0
-467 61 0
-468 58 0
-468 60 0
-469 58 0
-469 61 0
-470 60 0
-470 61 0
461 462 463 464 465 466 467 468 469 470 0
-471 20 0
-471 40 0
-472 20 0
-472 56 0
-473 20 0
-473 62 0
-474 20 0
-474 63 0
-475 40 0
-475 56 0
-476 40 0
-476 62 0
-477 40 0
-477 63 0
-478 56 0
-478 62 0
-479 56 0
-479 63 0
-480 62 0
-480 63 0
471 472 473 474 475 476 477 478 479 480 0
-481 21 0
-481 41 0
-482 21 0
-482 57 0
-483 21 0
-483 62 0
-484 21 0
-484 64 0
-485 41 0
-485 57 0
-486 41 0
-486 62 0
-487 41 0
-487 64 0
-488 57 0
-488 62 0
-489 57 0
-489 64 0
-490 62 0
-490 64 0
481 482 483 484 485 486 487 488 489 490 0
-491 22 0
-491 42 0
-492 22 0
-492 58 0
-493 22 0
-493 63 0
-494 22 0
-494 64 0
-495 42 0
-495 58 0
-496 42 0
-496 63 0
-497 42 0
-497 64 0
-498 58 0
-498 63 0
-499 58 0
-499 64 0
-500 63 0
-500 64 0
491 492 493 494 495 496 497 498 499 500 0
-501 23 0
-501 43 0
-502 23 0
-502 59 0
-503 23 0
-503 62 0
-504 23 0
-504 65 0
-505 43 0
-505 59 0
-506 43 0
-506 62 0
-507 43 0
-507 65 0
-508 59 0
-508 62 0
-509 59 0
-509 65 0
-510 62 0
-510 65 0
501 502 503 504 505 506 507 508 509 510 0
-511 24 0
-511 44 0
-512 24 0
-512 60 0
-513 24 0
-513 63 0
-514 24 0
-514 65 0
-515 44 0
-515 60 0
-516 44 0
-516 63 0
-517 44 0
-517 65 0
-518 60 0
-518 63 0
-519 60 0
-519 65 0
-520 63 0
-520 65 0
511 512 513 514 515 516 517 518 519 520 0
-521 25 0
-521 45 0
-522 25 0
-522 61 0
-523 25 0
-523 64 0
-524 25 0
-524 65 0
-525 45 0
-525 61 0
-526 45 0
-526 64 0
-527 45 0
-527 65 0
-528 61 0
-528 64 0
-529 61 0
-529 65 0
-530 64 0
-530 65 0
521 522 523 524 525 526 527 528 529 530 0
-531 26 0
-531 46 0
-532 26 0
-532 56 0
-533 26 0
-533 66 0
-534 26 0
-534 67 0
-535 46 0
-535 56 0
-536 46 0
-536 66 0
-537 46 0
-537 67 0
-538 56 0
-538 66 0
-539 56 0
-539 67 0
-540 66 0
-540 67 0
531 532 533 534 535 536 537 538 539 540 0
-541 27 0
-541 47 0
-542 27 0
-542 57 0
-543 27 0
-543 66 0
-544 27 0
-544 68 0
-545 47 0
-545 57 0
-546 47 0
-546 66 0
-547 47 0
-547 68 0
-548 57 0
-548 66 0
-549 57 0
-549 68 0
-550 66 0
-550 68 0
541 542 543 544 545 546 547 548 549 550 0
-551 28 0
-551 48 0
-552 28 0
-552 58 0
-553 28 0
-553 67 0
-554 28 0
-554 68 0
-555 48 0
-555 58 0
-556 48 0
-556 67 0
-557 48 0
-557 68 0
-558 58 0
-558 67 0
-559 58 0
-559 68 0
-560 67 0
-560 68 0
551 552 553 554 555 556 557 558 559 560 0
-561 29 0
-561 49 0
-562 29 0
-562 59 0
-563 29 0
-563 66 0
-564 29 0
-564 69 0
-565 49 0
-565 59 0
-566 49 0
-566 66 0
-567 49 0
-567 69 0
-568 59 0
-568 66 0
-569 59 0
-569 69 0
-570 66 0
-570 69 0
561 562 563 564 565 566 567 568 569 570 0
-571 30 0
-571 50 0
-572 30 0
-572 60 0
-573 30 0
-573 67 0
-574 30 0
-574 69 0
-575 50 0
-575 60 0
-576 50 0
-576 67 0
-577 50 0
-577 69 0
-578 60 0
-578 67 0
-579 60 0
-579 69 0
-580 67 0
-580 69 0
571 572 573 574 575 576 577 578 579 580 0
-581 31 0
-581 51 0
-582 31 0
-582 61 0
-583 31 0
-583 68 0
-584 31 0
-584 69 0
-585 51 0
-585 61 0
-586 51 0
-586 68 0
-587 51 0
-587 69 0
-588 61 0
-588 68 0
-589 61 0
-589 69 0
-590 68 0
-590 69 0
581 582 583 584 585 586 587 588 589 590 0
-591 32 0
-591 52 0
-592 32 0
-592 62 0
-593 32 0
-593 66 0
-594 32 0
-594 70 0
-595 52 0
-595 62 0
-596 52 0
-596 66 0
-597 52 0
-597 70 0
-598 62 0
-598 66 0
-599 62 0
-599 70 0
-600 66 0
-600 70 0
591 592 593 594 595 596 597 598 599 600 0
-601 33 0
-601 53 0
-602 33 0
-602 63 0
-603 33 0
-603 67 0
-604 33 0
-604 70 0
-605 53 0
-605 63 0
-606 53 0
-606 67 0
-607 53 0
-607 70 0
-608 63 0
-608 67 0
-609 63 0
-609 70 0
-610 67 0
-610 70 0
601 602 603 604 605 606 607 608 609 610 0
-611 34 0
-611 54 0
-612 34 0
-612 64 0
-613 34 0
-613 68 0
-614 34 0
-614 70 0
-615 54 0
-615 64 0
-616 54 0
-616 68 0
-617 54 0
-617 70 0
-618 64 0
-618 68 0
-619 64 0
-619 70 0
-620 68 0
-620 70 0
611 612 613 614 615 616 617 618 619 620 0
-621 35 0
-621 55 0
-622 35 0
-622 65 0
-623 35 0
-623 69 0
-624 35 0
-624 70 0
-625 55 0
-625 65 0
-626 55 0
-626 69 0
-627 55 0
-627 70 0
-628 65 0
-628 69 0
-629 65 0
-629 70 0
-630 69 0
-630 70 0
621 622 623 624 625 626 627 628 629 630 0
