c independent witness-pair encoding of the exact PB feasibility problem
c n 9
c primary variables 1 through 126 are lexicographic 4-subsets
p cnf 1386 2919
-1 -122 0
-1 -123 0
-1 -124 0
-1 -125 0
-1 -126 0
-2 -118 0
-2 -119 0
-2 -120 0
-2 -121 0
-2 -126 0
-3 -115 0
-3 -116 0
-3 -117 0
-3 -121 0
-3 -125 0
-4 -113 0
-4 -114 0
-4 -117 0
-4 -120 0
-4 -124 0
-5 -112 0
-5 -114 0
-5 -116 0
-5 -119 0
-5 -123 0
-6 -112 0
-6 -113 0
-6 -115 0
-6 -118 0
-6 -122 0
-7 -108 0
-7 -109 0
-7 -110 0
-7 -111 0
-7 -126 0
-8 -105 0
-8 -106 0
-8 -107 0
-8 -111 0
-8 -125 0
-9 -103 0
-9 -104 0
-9 -107 0
-9 -110 0
-9 -124 0
-10 -102 0
-10 -104 0
-10 -106 0
-10 -109 0
-10 -123 0
-11 -102 0
-11 -103 0
-11 -105 0
-11 -108 0
-11 -122 0
-12 -99 0
-12 -100 0
-12 -101 0
-12 -111 0
-12 -121 0
-13 -97 0
-13 -98 0
-13 -101 0
-13 -110 0
-13 -120 0
-14 -96 0
-14 -98 0
-14 -100 0
-14 -109 0
-14 -119 0
-15 -96 0
-15 -97 0
-15 -99 0
-15 -108 0
-15 -118 0
-16 -94 0
-16 -95 0
-16 -101 0
-16 -107 0
-16 -117 0
-17 -93 0
-17 -95 0
-17 -100 0
-17 -106 0
-17 -116 0
-18 -93 0
-18 -94 0
-18 -99 0
-18 -105 0
-18 -115 0
-19 -92 0
-19 -95 0
-19 -98 0
-19 -104 0
-19 -114 0
-20 -92 0
-20 -94 0
-20 -97 0
-20 -103 0
-20 -113 0
-21 -92 0
-21 -93 0
-21 -96 0
-21 -102 0
-21 -112 0
-22 -88 0
-22 -89 0
-22 -90 0
-22 -91 0
-22 -126 0
-23 -85 0
-23 -86 0
-23 -87 0
-23 -91 0
-23 -125 0
-24 -83 0
-24 -84 0
-24 -87 0
-24 -90 0
-24 -124 0
-25 -82 0
-25 -84 0
-25 -86 0
-25 -89 0
-25 -123 0
-26 -82 0
-26 -83 0
-26 -85 0
-26 -88 0
-26 -122 0
-27 -79 0
-27 -80 0
-27 -81 0
-27 -91 0
-27 -121 0
-28 -77 0
-28 -78 0
-28 -81 0
-28 -90 0
-28 -120 0
-29 -76 0
-29 -78 0
-29 -80 0
-29 -89 0
-29 -119 0
-30 -76 0
-30 -77 0
-30 -79 0
-30 -88 0
-30 -118 0
-31 -74 0
-31 -75 0
-31 -81 0
-31 -87 0
-31 -117 0
-32 -73 0
-32 -75 0
-32 -80 0
-32 -86 0
-32 -116 0
-33 -73 0
-33 -74 0
-33 -79 0
-33 -85 0
-33 -115 0
-34 -72 0
-34 -75 0
-34 -78 0
-34 -84 0
-34 -114 0
-35 -72 0
-35 -74 0
-35 -77 0
-35 -83 0
-35 -113 0
-36 -72 0
-36 -73 0
-36 -76 0
-36 -82 0
-36 -112 0
-37 -69 0
-37 -70 0
-37 -71 0
-37 -91 0
-37 -111 0
-38 -67 0
-38 -68 0
-38 -71 0
-38 -90 0
-38 -110 0
-39 -66 0
-39 -68 0
-39 -70 0
-39 -89 0
-39 -109 0
-40 -66 0
-40 -67 0
-40 -69 0
-40 -88 0
-40 -108 0
-41 -64 0
-41 -65 0
-41 -71 0
-41 -87 0
-41 -107 0
-42 -63 0
-42 -65 0
-42 -70 0
-42 -86 0
-42 -106 0
-43 -63 0
-43 -64 0
-43 -69 0
-43 -85 0
-43 -105 0
-44 -62 0
-44 -65 0
-44 -68 0
-44 -84 0
-44 -104 0
-45 -62 0
-45 -64 0
-45 -67 0
-45 -83 0
-45 -103 0
-46 -62 0
-46 -63 0
-46 -66 0
-46 -82 0
-46 -102 0
-47 -60 0
-47 -61 0
-47 -71 0
-47 -81 0
-47 -101 0
-48 -59 0
-48 -61 0
-48 -70 0
-48 -80 0
-48 -100 0
-49 -59 0
-49 -60 0
-49 -69 0
-49 -79 0
-49 -99 0
-50 -58 0
-50 -61 0
-50 -68 0
-50 -78 0
-50 -98 0
-51 -58 0
-51 -60 0
-51 -67 0
-51 -77 0
-51 -97 0
-52 -58 0
-52 -59 0
-52 -66 0
-52 -76 0
-52 -96 0
-53 -57 0
-53 -61 0
-53 -65 0
-53 -75 0
-53 -95 0
-54 -57 0
-54 -60 0
-54 -64 0
-54 -74 0
-54 -94 0
-55 -57 0
-55 -59 0
-55 -63 0
-55 -73 0
-55 -93 0
-56 -57 0
-56 -58 0
-56 -62 0
-56 -72 0
-56 -92 0
-57 -126 0
-58 -125 0
-59 -124 0
-60 -123 0
-61 -122 0
-62 -121 0
-63 -120 0
-64 -119 0
-65 -118 0
-66 -117 0
-67 -116 0
-68 -115 0
-69 -114 0
-70 -113 0
-71 -112 0
-72 -111 0
-73 -110 0
-74 -109 0
-75 -108 0
-76 -107 0
-77 -106 0
-78 -105 0
-79 -104 0
-80 -103 0
-81 -102 0
-82 -101 0
-83 -100 0
-84 -99 0
-85 -98 0
-86 -97 0
-87 -96 0
-88 -95 0
-89 -94 0
-90 -93 0
-91 -92 0
-127 1 0
-127 2 0
-128 1 0
-128 3 0
-129 1 0
-129 4 0
-130 1 0
-130 5 0
-131 1 0
-131 6 0
-132 2 0
-132 3 0
-133 2 0
-133 4 0
-134 2 0
-134 5 0
-135 2 0
-135 6 0
-136 3 0
-136 4 0
-137 3 0
-137 5 0
-138 3 0
-138 6 0
-139 4 0
-139 5 0
-140 4 0
-140 6 0
-141 5 0
-141 6 0
127 128 129 130 131 132 133 134 135 136 137 138 139 140 141 0
-142 1 0
-142 7 0
-143 1 0
-143 8 0
-144 1 0
-144 9 0
-145 1 0
-145 10 0
-146 1 0
-146 11 0
-147 7 0
-147 8 0
-148 7 0
-148 9 0
-149 7 0
-149 10 0
-150 7 0
-150 11 0
-151 8 0
-151 9 0
-152 8 0
-152 10 0
-153 8 0
-153 11 0
-154 9 0
-154 10 0
-155 9 0
-155 11 0
-156 10 0
-156 11 0
142 143 144 145 146 147 148 149 150 151 152 153 154 155 156 0
-157 2 0
-157 7 0
-158 2 0
-158 12 0
-159 2 0
-159 13 0
-160 2 0
-160 14 0
-161 2 0
-161 15 0
-162 7 0
-162 12 0
-163 7 0
-163 13 0
-164 7 0
-164 14 0
-165 7 0
-165 15 0
-166 12 0
-166 13 0
-167 12 0
-167 14 0
-168 12 0
-168 15 0
-169 13 0
-169 14 0
-170 13 0
-170 15 0
-171 14 0
-171 15 0
157 158 159 160 161 162 163 164 165 166 167 168 169 170 171 0
-172 3 0
-172 8 0
-173 3 0
-173 12 0
-174 3 0
-174 16 0
-175 3 0
-175 17 0
-176 3 0
-176 18 0
-177 8 0
-177 12 0
-178 8 0
-178 16 0
-179 8 0
-179 17 0
-180 8 0
-180 18 0
-181 12 0
-181 16 0
-182 12 0
-182 17 0
-183 12 0
-183 18 0
-184 16 0
-184 17 0
-185 16 0
-185 18 0
-186 17 0
-186 18 0
172 173 174 175 176 177 178 179 180 181 182 183 184 185 186 0
-187 4 0
-187 9 0
-188 4 0
-188 13 0
-189 4 0
-189 16 0
-190 4 0
-190 19 0
-191 4 0
-191 20 0
-192 9 0
-192 13 0
-193 9 0
-193 16 0
-194 9 0
-194 19 0
-195 9 0
-195 20 0
-196 13 0
-196 16 0
-197 13 0
-197 19 0
-198 13 0
-198 20 0
-199 16 0
-199 19 0
-200 16 0
-200 20 0
-201 19 0
-201 20 0
187 188 189 190 191 192 193 194 195 196 197 198 199 200 201 0
-202 5 0
-202 10 0
-203 5 0
-203 14 0
-204 5 0
-204 17 0
-205 5 0
-205 19 0
-206 5 0
-206 21 0
-207 10 0
-207 14 0
-208 10 0
-208 17 0
-209 10 0
-209 19 0
-210 10 0
-210 21 0
-211 14 0
-211 17 0
-212 14 0
-212 19 0
-213 14 0
-213 21 0
-214 17 0
-214 19 0
-215 17 0
-215 21 0
-216 19 0
-216 21 0
202 203 204 205 206 207 208 209 210 211 212 213 214 215 216 0
-217 6 0
-217 11 0
-218 6 0
-218 15 0
-219 6 0
-219 18 0
-220 6 0
-220 20 0
-221 6 0
-221 21 0
-222 11 0
-222 15 0
-223 11 0
-223 18 0
-224 11 0
-224 20 0
-225 11 0
-225 21 0
-226 15 0
-226 18 0
-227 15 0
-227 20 0
-228 15 0
-228 21 0
-229 18 0
-229 20 0
-230 18 0
-230 21 0
-231 20 0
-231 21 0
217 218 219 220 221 222 223 224 225 226 227 228 229 230 231 0
-232 1 0
-232 22 0
-233 1 0
-233 23 0
-234 1 0
-234 24 0
-235 1 0
-235 25 0
-236 1 0
-236 26 0
-237 22 0
-237 23 0
-238 22 0
-238 24 0
-239 22 0
-239 25 0
-240 22 0
-240 26 0
-241 23 0
-241 24 0
-242 23 0
-242 25 0
-243 23 0
-243 26 0
-244 24 0
-244 25 0
-245 24 0
-245 26 0
-246 25 0
-246 26 0
232 233 234 235 236 237 238 239 240 241 242 243 244 245 246 0
-247 2 0
-247 22 0
-248 2 0
-248 27 0
-249 2 0
-249 28 0
-250 2 0
-250 29 0
-251 2 0
-251 30 0
-252 22 0
-252 27 0
-253 22 0
-253 28 0
-254 22 0
-254 29 0
-255 22 0
-255 30 0
-256 27 0
-256 28 0
-257 27 0
-257 29 0
-258 27 0
-258 30 0
-259 28 0
-259 29 0
-260 28 0
-260 30 0
-261 29 0
-261 30 0
247 248 249 250 251 252 253 254 255 256 257 258 259 260 261 0
-262 3 0
-262 23 0
-263 3 0
-263 27 0
-264 3 0
-264 31 0
-265 3 0
-265 32 0
-266 3 0
-266 33 0
-267 23 0
-267 27 0
-268 23 0
-268 31 0
-269 23 0
-269 32 0
-270 23 0
-270 33 0
-271 27 0
-271 31 0
-272 27 0
-272 32 0
-273 27 0
-273 33 0
-274 31 0
-274 32 0
-275 31 0
-275 33 0
-276 32 0
-276 33 0
262 263 264 265 266 267 268 269 270 271 272 273 274 275 276 0
-277 4 0
-277 24 0
-278 4 0
-278 28 0
-279 4 0
-279 31 0
-280 4 0
-280 34 0
-281 4 0
-281 35 0
-282 24 0
-282 28 0
-283 24 0
-283 31 0
-284 24 0
-284 34 0
-285 24 0
-285 35 0
-286 28 0
-286 31 0
-287 28 0
-287 34 0
-288 28 0
-288 35 0
-289 31 0
-289 34 0
-290 31 0
-290 35 0
-291 34 0
-291 35 0
277 278 279 280 281 282 283 284 285 286 287 288 289 290 291 0
-292 5 0
-292 25 0
-293 5 0
-293 29 0
-294 5 0
-294 32 0
-295 5 0
-295 34 0
-296 5 0
-296 36 0
-297 25 0
-297 29 0
-298 25 0
-298 32 0
-299 25 0
-299 34 0
-300 25 0
-300 36 0
-301 29 0
-301 32 0
-302 29 0
-302 34 0
-303 29 0
-303 36 0
-304 32 0
-304 34 0
-305 32 0
-305 36 0
-306 34 0
-306 36 0
292 293 294 295 296 297 298 299 300 301 302 303 304 305 306 0
-307 6 0
-307 26 0
-308 6 0
-308 30 0
-309 6 0
-309 33 0
-310 6 0
-310 35 0
-311 6 0
-311 36 0
-312 26 0
-312 30 0
-313 26 0
-313 33 0
-314 26 0
-314 35 0
-315 26 0
-315 36 0
-316 30 0
-316 33 0
-317 30 0
-317 35 0
-318 30 0
-318 36 0
-319 33 0
-319 35 0
-320 33 0
-320 36 0
-321 35 0
-321 36 0
307 308 309 310 311 312 313 314 315 316 317 318 319 320 321 0
-322 7 0
-322 22 0
-323 7 0
-323 37 0
-324 7 0
-324 38 0
-325 7 0
-325 39 0
-326 7 0
-326 40 0
-327 22 0
-327 37 0
-328 22 0
-328 38 0
-329 22 0
-329 39 0
-330 22 0
-330 40 0
-331 37 0
-331 38 0
-332 37 0
-332 39 0
-333 37 0
-333 40 0
-334 38 0
-334 39 0
-335 38 0
-335 40 0
-336 39 0
-336 40 0
322 323 324 325 326 327 328 329 330 331 332 333 334 335 336 0
-337 8 0
-337 23 0
-338 8 0
-338 37 0
-339 8 0
-339 41 0
-340 8 0
-340 42 0
-341 8 0
-341 43 0
-342 23 0
-342 37 0
-343 23 0
-343 41 0
-344 23 0
-344 42 0
-345 23 0
-345 43 0
-346 37 0
-346 41 0
-347 37 0
-347 42 0
-348 37 0
-348 43 0
-349 41 0
-349 42 0
-350 41 0
-350 43 0
-351 42 0
-351 43 0
337 338 339 340 341 342 343 344 345 346 347 348 349 350 351 0
-352 9 0
-352 24 0
-353 9 0
-353 38 0
-354 9 0
-354 41 0
-355 9 0
-355 44 0
-356 9 0
-356 45 0
-357 24 0
-357 38 0
-358 24 0
-358 41 0
-359 24 0
-359 44 0
-360 24 0
-360 45 0
-361 38 0
-361 41 0
-362 38 0
-362 44 0
-363 38 0
-363 45 0
-364 41 0
-364 44 0
-365 41 0
-365 45 0
-366 44 0
-366 45 0
352 353 354 355 356 357 358 359 360 361 362 363 364 365 366 0
-367 10 0
-367 25 0
-368 10 0
-368 39 0
-369 10 0
-369 42 0
-370 10 0
-370 44 0
-371 10 0
-371 46 0
-372 25 0
-372 39 0
-373 25 0
-373 42 0
-374 25 0
-374 44 0
-375 25 0
-375 46 0
-376 39 0
-376 42 0
-377 39 0
-377 44 0
-378 39 0
-378 46 0
-379 42 0
-379 44 0
-380 42 0
-380 46 0
-381 44 0
-381 46 0
367 368 369 370 371 372 373 374 375 376 377 378 379 380 381 0
-382 11 0
-382 26 0
-383 11 0
-383 40 0
-384 11 0
-384 43 0
-385 11 0
-385 45 0
-386 11 0
-386 46 0
-387 26 0
-387 40 0
-388 26 0
-388 43 0
-389 26 0
-389 45 0
-390 26 0
-390 46 0
-391 40 0
-391 43 0
-392 40 0
-392 45 0
-393 40 0
-393 46 0
-394 43 0
-394 45 0
-395 43 0
-395 46 0
-396 45 0
-396 46 0
382 383 384 385 386 387 388 389 390 391 392 393 394 395 396 0
-397 12 0
-397 27 0
-398 12 0
-398 37 0
-399 12 0
-399 47 0
-400 12 0
-400 48 0
-401 12 0
-401 49 0
-402 27 0
-402 37 0
-403 27 0
-403 47 0
-404 27 0
-404 48 0
-405 27 0
-405 49 0
-406 37 0
-406 47 0
-407 37 0
-407 48 0
-408 37 0
-408 49 0
-409 47 0
-409 48 0
-410 47 0
-410 49 0
-411 48 0
-411 49 0
397 398 399 400 401 402 403 404 405 406 407 408 409 410 411 0
-412 13 0
-412 28 0
-413 13 0
-413 38 0
-414 13 0
-414 47 0
-415 13 0
-415 50 0
-416 13 0
-416 51 0
-417 28 0
-417 38 0
-418 28 0
-418 47 0
-419 28 0
-419 50 0
-420 28 0
-420 51 0
-421 38 0
-421 47 0
-422 38 0
-422 50 0
-423 38 0
-423 51 0
-424 47 0
-424 50 0
-425 47 0
-425 51 0
-426 50 0
-426 51 0
412 413 414 415 416 417 418 419 420 421 422 423 424 425 426 0
-427 14 0
-427 29 0
-428 14 0
-428 39 0
-429 14 0
-429 48 0
-430 14 0
-430 50 0
-431 14 0
-431 52 0
-432 29 0
-432 39 0
-433 29 0
-433 48 0
-434 29 0
-434 50 0
-435 29 0
-435 52 0
-436 39 0
-436 48 0
-437 39 0
-437 50 0
-438 39 0
-438 52 0
-439 48 0
-439 50 0
-440 48 0
-440 52 0
-441 50 0
-441 52 0
427 428 429 430 431 432 433 434 435 436 437 438 439 440 441 0
-442 15 0
-442 30 0
-443 15 0
-443 40 0
-444 15 0
-444 49 0
-445 15 0
-445 51 0
-446 15 0
-446 52 0
-447 30 0
-447 40 0
-448 30 0
-448 49 0
-449 30 0
-449 51 0
-450 30 0
-450 52 0
-451 40 0
-451 49 0
-452 40 0
-452 51 0
-453 40 0
-453 52 0
-454 49 0
-454 51 0
-455 49 0
-455 52 0
-456 51 0
-456 52 0
442 443 444 445 446 447 448 449 450 451 452 453 454 455 456 0
-457 16 0
-457 31 0
-458 16 0
-458 41 0
-459 16 0
-459 47 0
-460 16 0
-460 53 0
-461 16 0
-461 54 0
-462 31 0
-462 41 0
-463 31 0
-463 47 0
-464 31 0
-464 53 0
-465 31 0
-465 54 0
-466 41 0
-466 47 0
-467 41 0
-467 53 0
-468 41 0
-468 54 0
-469 47 0
-469 53 0
-470 47 0
-470 54 0
-471 53 0
-471 54 0
457 458 459 460 461 462 463 464 465 466 467 468 469 470 471 0
-472 17 0
-472 32 0
-473 17 0
-473 42 0
-474 17 0
-474 48 0
-475 17 0
-475 53 0
-476 17 0
-476 55 0
-477 32 0
-477 42 0
-478 32 0
-478 48 0
-479 32 0
-479 53 0
-480 32 0
-480 55 0
-481 42 0
-481 48 0
-482 42 0
-482 53 0
-483 42 0
-483 55 0
-484 48 0
-484 53 0
-485 48 0
-485 55 0
-486 53 0
-486 55 0
472 473 474 475 476 477 478 479 480 481 482 483 484 485 486 0
-487 18 0
-487 33 0
-488 18 0
-488 43 0
-489 18 0
-489 49 0
-490 18 0
-490 54 0
-491 18 0
-491 55 0
-492 33 0
-492 43 0
-493 33 0
-493 49 0
-494 33 0
-494 54 0
-495 33 0
-495 55 0
-496 43 0
-496 49 0
-497 43 0
-497 54 0
-498 43 0
-498 55 0
-499 49 0
-499 54 0
-500 49 0
-500 55 0
-501 54 0
-501 55 0
487 488 489 490 491 492 493 494 495 496 497 498 499 500 501 0
-502 19 0
-502 34 0
-503 19 0
-503 44 0
-504 19 0
-504 50 0
-505 19 0
-505 53 0
-506 19 0
-506 56 0
-507 34 0
-507 44 0
-508 34 0
-508 50 0
-509 34 0
-509 53 0
-510 34 0
-510 56 0
-511 44 0
-511 50 0
-512 44 0
-512 53 0
-513 44 0
-513 56 0
-514 50 0
-514 53 0
-515 50 0
-515 56 0
-516 53 0
-516 56 0
502 503 504 505 506 507 508 509 510 511 512 513 514 515 516 0
-517 20 0
-517 35 0
-518 20 0
-518 45 0
-519 20 0
-519 51 0
-520 20 0
-520 54 0
-521 20 0
-521 56 0
-522 35 0
-522 45 0
-523 35 0
-523 51 0
-524 35 0
-524 54 0
-525 35 0
-525 56 0
-526 45 0
-526 51 0
-527 45 0
-527 54 0
-528 45 0
-528 56 0
-529 51 0
-529 54 0
-530 51 0
-530 56 0
-531 54 0
-531 56 0
517 518 519 520 521 522 523 524 525 526 527 528 529 530 531 0
-532 21 0
-532 36 0
-533 21 0
-533 46 0
-534 21 0
-534 52 0
-535 21 0
-535 55 0
-536 21 0
-536 56 0
-537 36 0
-537 46 0
-538 36 0
-538 52 0
-539 36 0
-539 55 0
-540 36 0
-540 56 0
-541 46 0
-541 52 0
-542 46 0
-542 55 0
-543 46 0
-543 56 0
-544 52 0
-544 55 0
-545 52 0
-545 56 0
-546 55 0
-546 56 0
532 533 534 535 536 537 538 539 540 541 542 543 544 545 546 0
-547 1 0
-547 57 0
-548 1 0
-548 58 0
-549 1 0
-549 59 0
-550 1 0
-550 60 0
-551 1 0
-551 61 0
-552 57 0
-552 58 0
-553 57 0
-553 59 0
-554 57 0
-554 60 0
-555 57 0
-555 61 0
-556 58 0
-556 59 0
-557 58 0
-557 60 0
-558 58 0
-558 61 0
-559 59 0
-559 60 0
-560 59 0
-560 61 0
-561 60 0
-561 61 0
547 548 549 550 551 552 553 554 555 556 557 558 559 560 561 0
-562 2 0
-562 57 0
-563 2 0
-563 62 0
-564 2 0
-564 63 0
-565 2 0
-565 64 0
-566 2 0
-566 65 0
-567 57 0
-567 62 0
-568 57 0
-568 63 0
-569 57 0
-569 64 0
-570 57 0
-570 65 0
-571 62 0
-571 63 0
-572 62 0
-572 64 0
-573 62 0
-573 65 0
-574 63 0
-574 64 0
-575 63 0
-575 65 0
-576 64 0
-576 65 0
562 563 564 565 566 567 568 569 570 571 572 573 574 575 576 0
-577 3 0
-577 58 0
-578 3 0
-578 62 0
-579 3 0
-579 66 0
-580 3 0
-580 67 0
-581 3 0
-581 68 0
-582 58 0
-582 62 0
-583 58 0
-583 66 0
-584 58 0
-584 67 0
-585 58 0
-585 68 0
-586 62 0
-586 66 0
-587 62 0
-587 67 0
-588 62 0
-588 68 0
-589 66 0
-589 67 0
-590 66 0
-590 68 0
-591 67 0
-591 68 0
577 578 579 580 581 582 583 584 585 586 587 588 589 590 591 0
-592 4 0
-592 59 0
-593 4 0
-593 63 0
-594 4 0
-594 66 0
-595 4 0
-595 69 0
-596 4 0
-596 70 0
-597 59 0
-597 63 0
-598 59 0
-598 66 0
-599 59 0
-599 69 0
-600 59 0
-600 70 0
-601 63 0
-601 66 0
-602 63 0
-602 69 0
-603 63 0
-603 70 0
-604 66 0
-604 69 0
-605 66 0
-605 70 0
-606 69 0
-606 70 0
592 593 594 595 596 597 598 599 600 601 602 603 604 605 606 0
-607 5 0
-607 60 0
-608 5 0
-608 64 0
-609 5 0
-609 67 0
-610 5 0
-610 69 0
-611 5 0
-611 71 0
-612 60 0
-612 64 0
-613 60 0
-613 67 0
-614 60 0
-614 69 0
-615 60 0
-615 71 0
-616 64 0
-616 67 0
-617 64 0
-617 69 0
-618 64 0
-618 71 0
-619 67 0
-619 69 0
-620 67 0
-620 71 0
-621 69 0
-621 71 0
607 608 609 610 611 612 613 614 615 616 617 618 619 620 621 0
-622 6 0
-622 61 0
-623 6 0
-623 65 0
-624 6 0
-624 68 0
-625 6 0
-625 70 0
-626 6 0
-626 71 0
-627 61 0
-627 65 0
-628 61 0
-628 68 0
-629 61 0
-629 70 0
-630 61 0
-630 71 0
-631 65 0
-631 68 0
-632 65 0
-632 70 0
-633 65 0
-633 71 0
-634 68 0
-634 70 0
-635 68 0
-635 71 0
-636 70 0
-636 71 0
622 623 624 625 626 627 628 629 630 631 632 633 634 635 636 0
-637 7 0
-637 57 0
-638 7 0
-638 72 0
-639 7 0
-639 73 0
-640 7 0
-640 74 0
-641 7 0
-641 75 0
-642 57 0
-642 72 0
-643 57 0
-643 73 0
-644 57 0
-644 74 0
-645 57 0
-645 75 0
-646 72 0
-646 73 0
-647 72 0
-647 74 0
-648 72 0
-648 75 0
-649 73 0
-649 74 0
-650 73 0
-650 75 0
-651 74 0
-651 75 0
637 638 639 640 641 642 643 644 645 646 647 648 649 650 651 0
-652 8 0
-652 58 0
-653 8 0
-653 72 0
-654 8 0
-654 76 0
-655 8 0
-655 77 0
-656 8 0
-656 78 0
-657 58 0
-657 72 0
-658 58 0
-658 76 0
-659 58 0
-659 77 0
-660 58 0
-660 78 0
-661 72 0
-661 76 0
-662 72 0
-662 77 0
-663 72 0
-663 78 0
-664 76 0
-664 77 0
-665 76 0
-665 78 0
-666 77 0
-666 78 0
652 653 654 655 656 657 658 659 660 661 662 663 664 665 666 0
-667 9 0
-667 59 0
-668 9 0
-668 73 0
-669 9 0
-669 76 0
-670 9 0
-670 79 0
-671 9 0
-671 80 0
-672 59 0
-672 73 0
-673 59 0
-673 76 0
-674 59 0
-674 79 0
-675 59 0
-675 80 0
-676 73 0
-676 76 0
-677 73 0
-677 79 0
-678 73 0
-678 80 0
-679 76 0
-679 79 0
-680 76 0
-680 80 0
-681 79 0
-681 80 0
667 668 669 670 671 672 673 674 675 676 677 678 679 680 681 0
-682 10 0
-682 60 0
-683 10 0
-683 74 0
-684 10 0
-684 77 0
-685 10 0
-685 79 0
-686 10 0
-686 81 0
-687 60 0
-687 74 0
-688 60 0
-688 77 0
-689 60 0
-689 79 0
-690 60 0
-690 81 0
-691 74 0
-691 77 0
-692 74 0
-692 79 0
-693 74 0
-693 81 0
-694 77 0
-694 79 0
-695 77 0
-695 81 0
-696 79 0
-696 81 0
682 683 684 685 686 687 688 689 690 691 692 693 694 695 696 0
-697 11 0
-697 61 0
-698 11 0
-698 75 0
-699 11 0
-699 78 0
-700 11 0
-700 80 0
-701 11 0
-701 81 0
-702 61 0
-702 75 0
-703 61 0
-703 78 0
-704 61 0
-704 80 0
-705 61 0
-705 81 0
-706 75 0
-706 78 0
-707 75 0
-707 80 0
-708 75 0
-708 81 0
-709 78 0
-709 80 0
-710 78 0
-710 81 0
-711 80 0
-711 81 0
697 698 699 700 701 702 703 704 705 706 707 708 709 710 711 0
-712 12 0
-712 62 0
-713 12 0
-713 72 0
-714 12 0
-714 82 0
-715 12 0
-715 83 0
-716 12 0
-716 84 0
-717 62 0
-717 72 0
-718 62 0
-718 82 0
-719 62 0
-719 83 0
-720 62 0
-720 84 0
-721 72 0
-721 82 0
-722 72 0
-722 83 0
-723 72 0
-723 84 0
-724 82 0
-724 83 0
-725 82 0
-725 84 0
-726 83 0
-726 84 0
712 713 714 715 716 717 718 719 720 721 722 723 724 725 726 0
-727 13 0
-727 63 0
-728 13 0
-728 73 0
-729 13 0
-729 82 0
-730 13 0
-730 85 0
-731 13 0
-731 86 0
-732 63 0
-732 73 0
-733 63 0
-733 82 0
-734 63 0
-734 85 0
-735 63 0
-735 86 0
-736 73 0
-736 82 0
-737 73 0
-737 85 0
-738 73 0
-738 86 0
-739 82 0
-739 85 0
-740 82 0
-740 86 0
-741 85 0
-741 86 0
727 728 729 730 731 732 733 734 735 736 737 738 739 740 741 0
-742 14 0
-742 64 0
-743 14 0
-743 74 0
-744 14 0
-744 83 0
-745 14 0
-745 85 0
-746 14 0
-746 87 0
-747 64 0
-747 74 0
-748 64 0
-748 83 0
-749 64 0
-749 85 0
-750 64 0
-750 87 0
-751 74 0
-751 83 0
-752 74 0
-752 85 0
-753 74 0
-753 87 0
-754 83 0
-754 85 0
-755 83 0
-755 87 0
-756 85 0
-756 87 0
742 743 744 745 746 747 748 749 750 751 752 753 754 755 756 0
-757 15 0
-757 65 0
-758 15 0
-758 75 0
-759 15 0
-759 84 0
-760 15 0
-760 86 0
-761 15 0
-761 87 0
-762 65 0
-762 75 0
-763 65 0
-763 84 0
-764 65 0
-764 86 0
-765 65 0
-765 87 0
-766 75 0
-766 84 0
-767 75 0
-767 86 0
-768 75 0
-768 87 0
-769 84 0
-769 86 0
-770 84 0
-770 87 0
-771 86 0
-771 87 0
757 758 759 760 761 762 763 764 765 766 767 768 769 770 771 0
-772 16 0
-772 66 0
-773 16 0
-773 76 0
-774 16 0
-774 82 0
-775 16 0
-775 88 0
-776 16 0
-776 89 0
-777 66 0
-777 76 0
-778 66 0
-778 82 0
-779 66 0
-779 88 0
-780 66 0
-780 89 0
-781 76 0
-781 82 0
-782 76 0
-782 88 0
-783 76 0
-783 89 0
-784 82 0
-784 88 0
-785 82 0
-785 89 0
-786 88 0
-786 89 0
772 773 774 775 776 777 778 779 780 781 782 783 784 785 786 0
-787 17 0
-787 67 0
-788 17 0
-788 77 0
-789 17 0
-789 83 0
-790 17 0
-790 88 0
-791 17 0
-791 90 0
-792 67 0
-792 77 0
-793 67 0
-793 83 0
-794 67 0
-794 88 0
-795 67 0
-795 90 0
-796 77 0
-796 83 0
-797 77 0
-797 88 0
-798 77 0
-798 90 0
-799 83 0
-799 88 0
-800 83 0
-800 90 0
-801 88 0
-801 90 0
787 788 789 790 791 792 793 794 795 796 797 798 799 800 801 0
-802 18 0
-802 68 0
-803 18 0
-803 78 0
-804 18 0
-804 84 0
-805 18 0
-805 89 0
-806 18 0
-806 90 0
-807 68 0
-807 78 0
-808 68 0
-808 84 0
-809 68 0
-809 89 0
-810 68 0
-810 90 0
-811 78 0
-811 84 0
-812 78 0
-812 89 0
-813 78 0
-813 90 0
-814 84 0
-814 89 0
-815 84 0
-815 90 0
-816 89 0
-816 90 0
802 803 804 805 806 807 808 809 810 811 812 813 814 815 816 0
-817 19 0
-817 69 0
-818 19 0
-818 79 0
-819 19 0
-819 85 0
-820 19 0
-820 88 0
-821 19 0
-821 91 0
-822 69 0
-822 79 0
-823 69 0
-823 85 0
-824 69 0
-824 88 0
-825 69 0
-825 91 0
-826 79 0
-826 85 0
-827 79 0
-827 88 0
-828 79 0
-828 91 0
-829 85 0
-829 88 0
-830 85 0
-830 91 0
-831 88 0
-831 91 0
817 818 819 820 821 822 823 824 825 826 827 828 829 830 831 0
-832 20 0
-832 70 0
-833 20 0
-833 80 0
-834 20 0
-834 86 0
-835 20 0
-835 89 0
-836 20 0
-836 91 0
-837 70 0
-837 80 0
-838 70 0
-838 86 0
-839 70 0
-839 89 0
-840 70 0
-840 91 0
-841 80 0
-841 86 0
-842 80 0
-842 89 0
-843 80 0
-843 91 0
-844 86 0
-844 89 0
-845 86 0
-845 91 0
-846 89 0
-846 91 0
832 833 834 835 836 837 838 839 840 841 842 843 844 845 846 0
-847 21 0
-847 71 0
-848 21 0
-848 81 0
-849 21 0
-849 87 0
-850 21 0
-850 90 0
-851 21 0
-851 91 0
-852 71 0
-852 81 0
-853 71 0
-853 87 0
-854 71 0
-854 90 0
-855 71 0
-855 91 0
-856 81 0
-856 87 0
-857 81 0
-857 90 0
-858 81 0
-858 91 0
-859 87 0
-859 90 0
-860 87 0
-860 91 0
-861 90 0
-861 91 0
847 848 849 850 851 852 853 854 855 856 857 858 859 860 861 0
-862 22 0
-862 57 0
-863 22 0
-863 92 0
-864 22 0
-864 93 0
-865 22 0
-865 94 0
-866 22 0
-866 95 0
-867 57 0
-867 92 0
-868 57 0
-868 93 0
-869 57 0
-869 94 0
-870 57 0
-870 95 0
-871 92 0
-871 93 0
-872 92 0
-872 94 0
-873 92 0
-873 95 0
-874 93 0
-874 94 0
-875 93 0
-875 95 0
-876 94 0
-876 95 0
862 863 864 865 866 867 868 869 870 871 872 873 874 875 876 0
-877 23 0
-877 58 0
-878 23 0
-878 92 0
-879 23 0
-879 96 0
-880 23 0
-880 97 0
-881 23 0
-881 98 0
-882 58 0
-882 92 0
-883 58 0
-883 96 0
-884 58 0
-884 97 0
-885 58 0
-885 98 0
-886 92 0
-886 96 0
-887 92 0
-887 97 0
-888 92 0
-888 98 0
-889 96 0
-889 97 0
-890 96 0
-890 98 0
-891 97 0
-891 98 0
877 878 879 880 881 882 883 884 885 886 887 888 889 890 891 0
-892 24 0
-892 59 0
-893 24 0
-893 93 0
-894 24 0
-894 96 0
-895 24 0
-895 99 0
-896 24 0
-896 100 0
-897 59 0
-897 93 0
-898 59 0
-898 96 0
-899 59 0
-899 99 0
-900 59 0
-900 100 0
-901 93 0
-901 96 0
-902 93 0
-902 99 0
-903 93 0
-903 100 0
-904 96 0
-904 99 0
-905 96 0
-905 100 0
-906 99 0
-906 100 0
892 893 894 895 896 897 898 899 900 901 902 903 904 905 906 0
-907 25 0
-907 60 0
-908 25 0
-908 94 0
-909 25 0
-909 97 0
-910 25 0
-910 99 0
-911 25 0
-911 101 0
-912 60 0
-912 94 0
-913 60 0
-913 97 0
-914 60 0
-914 99 0
-915 60 0
-915 101 0
-916 94 0
-916 97 0
-917 94 0
-917 99 0
-918 94 0
-918 101 0
-919 97 0
-919 99 0
-920 97 0
-920 101 0
-921 99 0
-921 101 0
907 908 909 910 911 912 913 914 915 916 917 918 919 920 921 0
-922 26 0
-922 61 0
-923 26 0
-923 95 0
-924 26 0
-924 98 0
-925 26 0
-925 100 0
-926 26 0
-926 101 0
-927 61 0
-927 95 0
-928 61 0
-928 98 0
-929 61 0
-929 100 0
-930 61 0
-930 101 0
-931 95 0
-931 98 0
-932 95 0
-932 100 0
-933 95 0
-933 101 0
-934 98 0
-934 100 0
-935 98 0
-935 101 0
-936 100 0
-936 101 0
922 923 924 925 926 927 928 929 930 931 932 933 934 935 936 0
-937 27 0
-937 62 0
-938 27 0
-938 92 0
-939 27 0
-939 102 0
-940 27 0
-940 103 0
-941 27 0
-941 104 0
-942 62 0
-942 92 0
-943 62 0
-943 102 0
-944 62 0
-944 103 0
-945 62 0
-945 104 0
-946 92 0
-946 102 0
-947 92 0
-947 103 0
-948 92 0
-948 104 0
-949 102 0
-949 103 0
-950 102 0
-950 104 0
-951 103 0
-951 104 0
937 938 939 940 941 942 943 944 945 946 947 948 949 950 951 0
-952 28 0
-952 63 0
-953 28 0
-953 93 0
-954 28 0
-954 102 0
-955 28 0
-955 105 0
-956 28 0
-956 106 0
-957 63 0
-957 93 0
-958 63 0
-958 102 0
-959 63 0
-959 105 0
-960 63 0
-960 106 0
-961 93 0
-961 102 0
-962 93 0
-962 105 0
-963 93 0
-963 106 0
-964 102 0
-964 105 0
-965 102 0
-965 106 0
-966 105 0
-966 106 0
952 953 954 955 956 957 958 959 960 961 962 963 964 965 966 0
-967 29 0
-967 64 0
-968 29 0
-968 94 0
-969 29 0
-969 103 0
-970 29 0
-970 105 0
-971 29 0
-971 107 0
-972 64 0
-972 94 0
-973 64 0
-973 103 0
-974 64 0
-974 105 0
-975 64 0
-975 107 0
-976 94 0
-976 103 0
-977 94 0
-977 105 0
-978 94 0
-978 107 0
-979 103 0
-979 105 0
-980 103 0
-980 107 0
-981 105 0
-981 107 0
967 968 969 970 971 972 973 974 975 976 977 978 979 980 981 0
-982 30 0
-982 65 0
-983 30 0
-983 95 0
-984 30 0
-984 104 0
-985 30 0
-985 106 0
-986 30 0
-986 107 0
-987 65 0
-987 95 0
-988 65 0
-988 104 0
-989 65 0
-989 106 0
-990 65 0
-990 107 0
-991 95 0
-991 104 0
-992 95 0
-992 106 0
-993 95 0
-993 107 0
-994 104 0
-994 106 0
-995 104 0
-995 107 0
-996 106 0
-996 107 0
982 983 984 985 986 987 988 989 990 991 992 993 994 995 996 0
-997 31 0
-997 66 0
-998 31 0
-998 96 0
-999 31 0
-999 102 0
-1000 31 0
-1000 108 0
-1001 31 0
-1001 109 0
-1002 66 0
-1002 96 0
-1003 66 0
-1003 102 0
-1004 66 0
-1004 108 0
-1005 66 0
-1005 109 0
-1006 96 0
-1006 102 0
-1007 96 0
-1007 108 0
-1008 96 0
-1008 109 0
-1009 102 0
-1009 108 0
-1010 102 0
-1010 109 0
-1011 108 0
-1011 109 0
997 998 999 1000 1001 1002 1003 1004 1005 1006 1007 1008 1009 1010 1011 0
-1012 32 0
-1012 67 0
-1013 32 0
-1013 97 0
-1014 32 0
-1014 103 0
-1015 32 0
-1015 108 0
-1016 32 0
-1016 110 0
-1017 67 0
-1017 97 0
-1018 67 0
-1018 103 0
-1019 67 0
-1019 108 0
-1020 67 0
-1020 110 0
-1021 97 0
-1021 103 0
-1022 97 0
-1022 108 0
-1023 97 0
-1023 110 0
-1024 103 0
-1024 108 0
-1025 103 0
-1025 110 0
-1026 108 0
-1026 110 0
1012 1013 1014 1015 1016 1017 1018 1019 1020 1021 1022 1023 1024 1025 1026 0
-1027 33 0
-1027 68 0
-1028 33 0
-1028 98 0
-1029 33 0
-1029 104 0
-1030 33 0
-1030 109 0
-1031 33 0
-1031 110 0
-1032 68 0
-1032 98 0
-1033 68 0
-1033 104 0
-1034 68 0
-1034 109 0
-1035 68 0
-1035 110 0
-1036 98 0
-1036 104 0
-1037 98 0
-1037 109 0
-1038 98 0
-1038 110 0
-1039 104 0
-1039 109 0
-1040 104 0
-1040 110 0
-1041 109 0
-1041 110 0
1027 1028 1029 1030 1031 1032 1033 1034 1035 1036 1037 1038 1039 1040 1041 0
-1042 34 0
-1042 69 0
-1043 34 0
-1043 99 0
-1044 34 0
-1044 105 0
-1045 34 0
-1045 108 0
-1046 34 0
-1046 111 0
-1047 69 0
-1047 99 0
-1048 69 0
-1048 105 0
-1049 69 0
-1049 108 0
-1050 69 0
-1050 111 0
-1051 99 0
-1051 105 0
-1052 99 0
-1052 108 0
-1053 99 0
-1053 111 0
-1054 105 0
-1054 108 0
-1055 105 0
-1055 111 0
-1056 108 0
-1056 111 0
1042 1043 1044 1045 1046 1047 1048 1049 1050 1051 1052 1053 1054 1055 1056 0
-1057 35 0
-1057 70 0
-1058 35 0
-1058 100 0
-1059 35 0
-1059 106 0
-1060 35 0
-1060 109 0
-1061 35 0
-1061 111 0
-1062 70 0
-1062 100 0
-1063 70 0
-1063 106 0
-1064 70 0
-1064 109 0
-1065 70 0
-1065 111 0
-1066 100 0
-1066 106 0
-1067 100 0
-1067 109 0
-1068 100 0
-1068 111 0
-1069 106 0
-1069 109 0
-1070 106 0
-1070 111 0
-1071 109 0
-1071 111 0
1057 1058 1059 1060 1061 1062 1063 1064 1065 1066 1067 1068 1069 1070 1071 0
-1072 36 0
-1072 71 0
-1073 36 0
-1073 101 0
-1074 36 0
-1074 107 0
-1075 36 0
-1075 110 0
-1076 36 0
-1076 111 0
-1077 71 0
-1077 101 0
-1078 71 0
-1078 107 0
-1079 71 0
-1079 110 0
-1080 71 0
-1080 111 0
-1081 101 0
-1081 107 0
-1082 101 0
-1082 110 0
-1083 101 0
-1083 111 0
-1084 107 0
-1084 110 0
-1085 107 0
-1085 111 0
-1086 110 0
-1086 111 0
1072 1073 1074 1075 1076 1077 1078 1079 1080 1081 1082 1083 1084 1085 1086 0
-1087 37 0
-1087 72 0
-1088 37 0
-1088 92 0
-1089 37 0
-1089 112 0
-1090 37 0
-1090 113 0
-1091 37 0
-1091 114 0
-1092 72 0
-1092 92 0
-1093 72 0
-1093 112 0
-1094 72 0
-1094 113 0
-1095 72 0
-1095 114 0
-1096 92 0
-1096 112 0
-1097 92 0
-1097 113 0
-1098 92 0
-1098 114 0
-1099 112 0
-1099 113 0
-1100 112 0
-1100 114 0
-1101 113 0
-1101 114 0
1087 1088 1089 1090 1091 1092 1093 1094 1095 1096 1097 1098 1099 1100 1101 0
-1102 38 0
-1102 73 0
-1103 38 0
-1103 93 0
-1104 38 0
-1104 112 0
-1105 38 0
-1105 115 0
-1106 38 0
-1106 116 0
-1107 73 0
-1107 93 0
-1108 73 0
-1108 112 0
-1109 73 0
-1109 115 0
-1110 73 0
-1110 116 0
-1111 93 0
-1111 112 0
-1112 93 0
-1112 115 0
-1113 93 0
-1113 116 0
-1114 112 0
-1114 115 0
-1115 112 0
-1115 116 0
-1116 115 0
-1116 116 0
1102 1103 1104 1105 1106 1107 1108 1109 1110 1111 1112 1113 1114 1115 1116 0
-1117 39 0
-1117 74 0
-1118 39 0
-1118 94 0
-1119 39 0
-1119 113 0
-1120 39 0
-1120 115 0
-1121 39 0
-1121 117 0
-1122 74 0
-1122 94 0
-1123 74 0
-1123 113 0
-1124 74 0
-1124 115 0
-1125 74 0
-1125 117 0
-1126 94 0
-1126 113 0
-1127 94 0
-1127 115 0
-1128 94 0
-1128 117 0
-1129 113 0
-1129 115 0
-1130 113 0
-1130 117 0
-1131 115 0
-1131 117 0
1117 1118 1119 1120 1121 1122 1123 1124 1125 1126 1127 1128 1129 1130 1131 0
-1132 40 0
-1132 75 0
-1133 40 0
-1133 95 0
-1134 40 0
-1134 114 0
-1135 40 0
-1135 116 0
-1136 40 0
-1136 117 0
-1137 75 0
-1137 95 0
-1138 75 0
-1138 114 0
-1139 75 0
-1139 116 0
-1140 75 0
-1140 117 0
-1141 95 0
-1141 114 0
-1142 95 0
-1142 116 0
-1143 95 0
-1143 117 0
-1144 114 0
-1144 116 0
-1145 114 0
-1145 117 0
-1146 116 0
-1146 117 0
1132 1133 1134 1135 1136 1137 1138 1139 1140 1141 1142 1143 1144 1145 1146 0
-1147 41 0
-1147 76 0
-1148 41 0
-1148 96 0
-1149 41 0
-1149 112 0
-1150 41 0
-1150 118 0
-1151 41 0
-1151 119 0
-1152 76 0
-1152 96 0
-1153 76 0
-1153 112 0
-1154 76 0
-1154 118 0
-1155 76 0
-1155 119 0
-1156 96 0
-1156 112 0
-1157 96 0
-1157 118 0
-1158 96 0
-1158 119 0
-1159 112 0
-1159 118 0
-1160 112 0
-1160 119 0
-1161 118 0
-1161 119 0
1147 1148 1149 1150 1151 1152 1153 1154 1155 1156 1157 1158 1159 1160 1161 0
-1162 42 0
-1162 77 0
-1163 42 0
-1163 97 0
-1164 42 0
-1164 113 0
-1165 42 0
-1165 118 0
-1166 42 0
-1166 120 0
-1167 77 0
-1167 97 0
-1168 77 0
-1168 113 0
-1169 77 0
-1169 118 0
-1170 77 0
-1170 120 0
-1171 97 0
-1171 113 0
-1172 97 0
-1172 118 0
-1173 97 0
-1173 120 0
-1174 113 0
-1174 118 0
-1175 113 0
-1175 120 0
-1176 118 0
-1176 120 0
1162 1163 1164 1165 1166 1167 1168 1169 1170 1171 1172 1173 1174 1175 1176 0
-1177 43 0
-1177 78 0
-1178 43 0
-1178 98 0
-1179 43 0
-1179 114 0
-1180 43 0
-1180 119 0
-1181 43 0
-1181 120 0
-1182 78 0
-1182 98 0
-1183 78 0
-1183 114 0
-1184 78 0
-1184 119 0
-1185 78 0
-1185 120 0
-1186 98 0
-1186 114 0
-1187 98 0
-1187 119 0
-1188 98 0
-1188 120 0
-1189 114 0
-1189 119 0
-1190 114 0
-1190 120 0
-1191 119 0
-1191 120 0
1177 1178 1179 1180 1181 1182 1183 1184 1185 1186 1187 1188 1189 1190 1191 0
-1192 44 0
-1192 79 0
-1193 44 0
-1193 99 0
-1194 44 0
-1194 115 0
-1195 44 0
-1195 118 0
-1196 44 0
-1196 121 0
-1197 79 0
-1197 99 0
-1198 79 0
-1198 115 0
-1199 79 0
-1199 118 0
-1200 79 0
-1200 121 0
-1201 99 0
-1201 115 0
-1202 99 0
-1202 118 0
-1203 99 0
-1203 121 0
-1204 115 0
-1204 118 0
-1205 115 0
-1205 121 0
-1206 118 0
-1206 121 0
1192 1193 1194 1195 1196 1197 1198 1199 1200 1201 1202 1203 1204 1205 1206 0
-1207 45 0
-1207 80 0
-1208 45 0
-1208 100 0
-1209 45 0
-1209 116 0
-1210 45 0
-1210 119 0
-1211 45 0
-1211 121 0
-1212 80 0
-1212 100 0
-1213 80 0
-1213 116 0
-1214 80 0
-1214 119 0
-1215 80 0
-1215 121 0
-1216 100 0
-1216 116 0
-1217 100 0
-1217 119 0
-1218 100 0
-1218 121 0
-1219 116 0
-1219 119 0
-1220 116 0
-1220 121 0
-1221 119 0
-1221 121 0
1207 1208 1209 1210 1211 1212 1213 1214 1215 1216 1217 1218 1219 1220 1221 0
-1222 46 0
-1222 81 0
-1223 46 0
-1223 101 0
-1224 46 0
-1224 117 0
-1225 46 0
-1225 120 0
-1226 46 0
-1226 121 0
-1227 81 0
-1227 101 0
-1228 81 0
-1228 117 0
-1229 81 0
-1229 120 0
-1230 81 0
-1230 121 0
-1231 101 0
-1231 117 0
-1232 101 0
-1232 120 0
-1233 101 0
-1233 121 0
-1234 117 0
-1234 120 0
-1235 117 0
-1235 121 0
-1236 120 0
-1236 121 0
1222 1223 1224 1225 1226 1227 1228 1229 1230 1231 1232 1233 1234 1235 1236 0
-1237 47 0
-1237 82 0
-1238 47 0
-1238 102 0
-1239 47 0
-1239 112 0
-1240 47 0
-1240 122 0
-1241 47 0
-1241 123 0
-1242 82 0
-1242 102 0
-1243 82 0
-1243 112 0
-1244 82 0
-1244 122 0
-1245 82 0
-1245 123 0
-1246 102 0
-1246 112 0
-1247 102 0
-1247 122 0
-1248 102 0
-1248 123 0
-1249 112 0
-1249 122 0
-1250 112 0
-1250 123 0
-1251 122 0
-1251 123 0
1237 1238 1239 1240 1241 1242 1243 1244 1245 1246 1247 1248 1249 1250 1251 0
-1252 48 0
-1252 83 0
-1253 48 0
-1253 103 0
-1254 48 0
-1254 113 0
-1255 48 0
-1255 122 0
-1256 48 0
-1256 124 0
-1257 83 0
-1257 103 0
-1258 83 0
-1258 113 0
-1259 83 0
-1259 122 0
-1260 83 0
-1260 124 0
-1261 103 0
-1261 113 0
-1262 103 0
-1262 122 0
-1263 103 0
-1263 124 0
-1264 113 0
-1264 122 0
-1265 113 0
-1265 124 0
-1266 122 0
-1266 124 0
1252 1253 1254 1255 1256 1257 1258 1259 1260 1261 1262 1263 1264 1265 1266 0
-1267 49 0
-1267 84 0
-1268 49 0
-1268 104 0
-1269 49 0
-1269 114 0
-1270 49 0
-1270 123 0
-1271 49 0
-1271 124 0
-1272 84 0
-1272 104 0
-1273 84 0
-1273 114 0
-1274 84 0
-1274 123 0
-1275 84 0
-1275 124 0
-1276 104 0
-1276 114 0
-1277 104 0
-1277 123 0
-1278 104 0
-1278 124 0
-1279 114 0
-1279 123 0
-1280 114 0
-1280 124 0
-1281 123 0
-1281 124 0
1267 1268 1269 1270 1271 1272 1273 1274 1275 1276 1277 1278 1279 1280 1281 0
-1282 50 0
-1282 85 0
-1283 50 0
-1283 105 0
-1284 50 0
-1284 115 0
-1285 50 0
-1285 122 0
-1286 50 0
-1286 125 0
-1287 85 0
-1287 105 0
-1288 85 0
-1288 115 0
-1289 85 0
-1289 122 0
-1290 85 0
-1290 125 0
-1291 105 0
-1291 115 0
-1292 105 0
-1292 122 0
-1293 105 0
-1293 125 0
-1294 115 0
-1294 122 0
-1295 115 0
-1295 125 0
-1296 122 0
-1296 125 0
1282 1283 1284 1285 1286 1287 1288 1289 1290 1291 1292 1293 1294 1295 1296 0
-1297 51 0
-1297 86 0
-1298 51 0
-1298 106 0
-1299 51 0
-1299 116 0
-1300 51 0
-1300 123 0
-1301 51 0
-1301 125 0
-1302 86 0
-1302 106 0
-1303 86 0
-1303 116 0
-1304 86 0
-1304 123 0
-1305 86 0
-1305 125 0
-1306 106 0
-1306 116 0
-1307 106 0
-1307 123 0
-1308 106 0
-1308 125 0
-1309 116 0
-1309 123 0
-1310 116 0
-1310 125 0
-1311 123 0
-1311 125 0
1297 1298 1299 1300 1301 1302 1303 1304 1305 1306 1307 1308 1309 1310 1311 0
-1312 52 0
-1312 87 0
-1313 52 0
-1313 107 0
-1314 52 0
-1314 117 0
-1315 52 0
-1315 124 0
-1316 52 0
-1316 125 0
-1317 87 0
-1317 107 0
-1318 87 0
-1318 117 0
-1319 87 0
-1319 124 0
-1320 87 0
-1320 125 0
-1321 107 0
-1321 117 0
-1322 107 0
-1322 124 0
-1323 107 0
-1323 125 0
-1324 117 0
-1324 124 0
-1325 117 0
-1325 125 0
-1326 124 0
-1326 125 0
1312 1313 1314 1315 1316 1317 1318 1319 1320 1321 1322 1323 1324 1325 1326 0
-1327 53 0
-1327 88 0
-1328 53 0
-1328 108 0
-1329 53 0
-1329 118 0
-1330 53 0
-1330 122 0
-1331 53 0
-1331 126 0
-1332 88 0
-1332 108 0
-1333 88 0
-1333 118 0
-1334 88 0
-1334 122 0
-1335 88 0
-1335 126 0
-1336 108 0
-1336 118 0
-1337 108 0
-1337 122 0
-1338 108 0
-1338 126 0
-1339 118 0
-1339 122 0
-1340 118 0
-1340 126 0
-1341 122 0
-1341 126 0
1327 1328 1329 1330 1331 1332 1333 1334 1335 1336 1337 1338 1339 1340 1341 0
-1342 54 0
-1342 89 0
-1343 54 0
-1343 109 0
-1344 54 0
-1344 119 0
-1345 54 0
-1345 123 0
-1346 54 0
-1346 126 0
-1347 89 0
-1347 109 0
-1348 89 0
-1348 119 0
-1349 89 0
-1349 123 0
-1350 89 0
-1350 126 0
-1351 109 0
-1351 119 0
-1352 109 0
-1352 123 0
-1353 109 0
-1353 126 0
-1354 119 0
-1354 123 0
-1355 119 0
-1355 126 0
-1356 123 0
-1356 126 0
1342 1343 1344 1345 1346 1347 1348 1349 1350 1351 1352 1353 1354 1355 1356 0
-1357 55 0
-1357 90 0
-1358 55 0
-1358 110 0
-1359 55 0
-1359 120 0
-1360 55 0
-1360 124 0
-1361 55 0
-1361 126 0
-1362 90 0
-1362 110 0
-1363 90 0
-1363 120 0
-1364 90 0
-1364 124 0
-1365 90 0
-1365 126 0
-1366 110 0
-1366 120 0
-1367 110 0
-1367 124 0
-1368 110 0
-1368 126 0
-1369 120 0
-1369 124 0
-1370 120 0
-1370 126 0
-1371 124 0
-1371 126 0
1357 1358 1359 1360 1361 1362 1363 1364 1365 1366 1367 1368 1369 1370 1371 0
-1372 56 0
-1372 91 0
-1373 56 0
-1373 111 0
-1374 56 0
-1374 121 0
-1375 56 0
-1375 125 0
-1376 56 0
-1376 126 0
-1377 91 0
-1377 111 0
-1378 91 0
-1378 121 0
-1379 91 0
-1379 125 0
-1380 91 0
-1380 126 0
-1381 111 0
-1381 121 0
-1382 111 0
-1382 125 0
-1383 111 0
-1383 126 0
-1384 121 0
-1384 125 0
-1385 121 0
-1385 126 0
-1386 125 0
-1386 126 0
1372 1373 1374 1375 1376 1377 1378 1379 1380 1381 1382 1383 1384 1385 1386 0
