c canonical (k,d)=(4,3) d-degree EKR counterexample instance
c n 9
c variables are lexicographically ordered 4-subsets of [n]
p cnf 126 819
-1 -122 0
-1 -123 0
-1 -124 0
-1 -125 0
-1 -126 0
-2 -118 0
-2 -119 0
-2 -120 0
-2 -121 0
-2 -126 0
-3 -115 0
-3 -116 0
-3 -117 0
-3 -121 0
-3 -125 0
-4 -113 0
-4 -114 0
-4 -117 0
-4 -120 0
-4 -124 0
-5 -112 0
-5 -114 0
-5 -116 0
-5 -119 0
-5 -123 0
-6 -112 0
-6 -113 0
-6 -115 0
-6 -118 0
-6 -122 0
-7 -108 0
-7 -109 0
-7 -110 0
-7 -111 0
-7 -126 0
-8 -105 0
-8 -106 0
-8 -107 0
-8 -111 0
-8 -125 0
-9 -103 0
-9 -104 0
-9 -107 0
-9 -110 0
-9 -124 0
-10 -102 0
-10 -104 0
-10 -106 0
-10 -109 0
-10 -123 0
-11 -102 0
-11 -103 0
-11 -105 0
-11 -108 0
-11 -122 0
-12 -99 0
-12 -100 0
-12 -101 0
-12 -111 0
-12 -121 0
-13 -97 0
-13 -98 0
-13 -101 0
-13 -110 0
-13 -120 0
-14 -96 0
-14 -98 0
-14 -100 0
-14 -109 0
-14 -119 0
-15 -96 0
-15 -97 0
-15 -99 0
-15 -108 0
-15 -118 0
-16 -94 0
-16 -95 0
-16 -101 0
-16 -107 0
-16 -117 0
-17 -93 0
-17 -95 0
-17 -100 0
-17 -106 0
-17 -116 0
-18 -93 0
-18 -94 0
-18 -99 0
-18 -105 0
-18 -115 0
-19 -92 0
-19 -95 0
-19 -98 0
-19 -104 0
-19 -114 0
-20 -92 0
-20 -94 0
-20 -97 0
-20 -103 0
-20 -113 0
-21 -92 0
-21 -93 0
-21 -96 0
-21 -102 0
-21 -112 0
-22 -88 0
-22 -89 0
-22 -90 0
-22 -91 0
-22 -126 0
-23 -85 0
-23 -86 0
-23 -87 0
-23 -91 0
-23 -125 0
-24 -83 0
-24 -84 0
-24 -87 0
-24 -90 0
-24 -124 0
-25 -82 0
-25 -84 0
-25 -86 0
-25 -89 0
-25 -123 0
-26 -82 0
-26 -83 0
-26 -85 0
-26 -88 0
-26 -122 0
-27 -79 0
-27 -80 0
-27 -81 0
-27 -91 0
-27 -121 0
-28 -77 0
-28 -78 0
-28 -81 0
-28 -90 0
-28 -120 0
-29 -76 0
-29 -78 0
-29 -80 0
-29 -89 0
-29 -119 0
-30 -76 0
-30 -77 0
-30 -79 0
-30 -88 0
-30 -118 0
-31 -74 0
-31 -75 0
-31 -81 0
-31 -87 0
-31 -117 0
-32 -73 0
-32 -75 0
-32 -80 0
-32 -86 0
-32 -116 0
-33 -73 0
-33 -74 0
-33 -79 0
-33 -85 0
-33 -115 0
-34 -72 0
-34 -75 0
-34 -78 0
-34 -84 0
-34 -114 0
-35 -72 0
-35 -74 0
-35 -77 0
-35 -83 0
-35 -113 0
-36 -72 0
-36 -73 0
-36 -76 0
-36 -82 0
-36 -112 0
-37 -69 0
-37 -70 0
-37 -71 0
-37 -91 0
-37 -111 0
-38 -67 0
-38 -68 0
-38 -71 0
-38 -90 0
-38 -110 0
-39 -66 0
-39 -68 0
-39 -70 0
-39 -89 0
-39 -109 0
-40 -66 0
-40 -67 0
-40 -69 0
-40 -88 0
-40 -108 0
-41 -64 0
-41 -65 0
-41 -71 0
-41 -87 0
-41 -107 0
-42 -63 0
-42 -65 0
-42 -70 0
-42 -86 0
-42 -106 0
-43 -63 0
-43 -64 0
-43 -69 0
-43 -85 0
-43 -105 0
-44 -62 0
-44 -65 0
-44 -68 0
-44 -84 0
-44 -104 0
-45 -62 0
-45 -64 0
-45 -67 0
-45 -83 0
-45 -103 0
-46 -62 0
-46 -63 0
-46 -66 0
-46 -82 0
-46 -102 0
-47 -60 0
-47 -61 0
-47 -71 0
-47 -81 0
-47 -101 0
-48 -59 0
-48 -61 0
-48 -70 0
-48 -80 0
-48 -100 0
-49 -59 0
-49 -60 0
-49 -69 0
-49 -79 0
-49 -99 0
-50 -58 0
-50 -61 0
-50 -68 0
-50 -78 0
-50 -98 0
-51 -58 0
-51 -60 0
-51 -67 0
-51 -77 0
-51 -97 0
-52 -58 0
-52 -59 0
-52 -66 0
-52 -76 0
-52 -96 0
-53 -57 0
-53 -61 0
-53 -65 0
-53 -75 0
-53 -95 0
-54 -57 0
-54 -60 0
-54 -64 0
-54 -74 0
-54 -94 0
-55 -57 0
-55 -59 0
-55 -63 0
-55 -73 0
-55 -93 0
-56 -57 0
-56 -58 0
-56 -62 0
-56 -72 0
-56 -92 0
-57 -126 0
-58 -125 0
-59 -124 0
-60 -123 0
-61 -122 0
-62 -121 0
-63 -120 0
-64 -119 0
-65 -118 0
-66 -117 0
-67 -116 0
-68 -115 0
-69 -114 0
-70 -113 0
-71 -112 0
-72 -111 0
-73 -110 0
-74 -109 0
-75 -108 0
-76 -107 0
-77 -106 0
-78 -105 0
-79 -104 0
-80 -103 0
-81 -102 0
-82 -101 0
-83 -100 0
-84 -99 0
-85 -98 0
-86 -97 0
-87 -96 0
-88 -95 0
-89 -94 0
-90 -93 0
-91 -92 0
2 3 4 5 6 0
1 3 4 5 6 0
1 2 4 5 6 0
1 2 3 5 6 0
1 2 3 4 6 0
1 2 3 4 5 0
7 8 9 10 11 0
1 8 9 10 11 0
1 7 9 10 11 0
1 7 8 10 11 0
1 7 8 9 11 0
1 7 8 9 10 0
7 12 13 14 15 0
2 12 13 14 15 0
2 7 13 14 15 0
2 7 12 14 15 0
2 7 12 13 15 0
2 7 12 13 14 0
8 12 16 17 18 0
3 12 16 17 18 0
3 8 16 17 18 0
3 8 12 17 18 0
3 8 12 16 18 0
3 8 12 16 17 0
9 13 16 19 20 0
4 13 16 19 20 0
4 9 16 19 20 0
4 9 13 19 20 0
4 9 13 16 20 0
4 9 13 16 19 0
10 14 17 19 21 0
5 14 17 19 21 0
5 10 17 19 21 0
5 10 14 19 21 0
5 10 14 17 21 0
5 10 14 17 19 0
11 15 18 20 21 0
6 15 18 20 21 0
6 11 18 20 21 0
6 11 15 20 21 0
6 11 15 18 21 0
6 11 15 18 20 0
22 23 24 25 26 0
1 23 24 25 26 0
1 22 24 25 26 0
1 22 23 25 26 0
1 22 23 24 26 0
1 22 23 24 25 0
22 27 28 29 30 0
2 27 28 29 30 0
2 22 28 29 30 0
2 22 27 29 30 0
2 22 27 28 30 0
2 22 27 28 29 0
23 27 31 32 33 0
3 27 31 32 33 0
3 23 31 32 33 0
3 23 27 32 33 0
3 23 27 31 33 0
3 23 27 31 32 0
24 28 31 34 35 0
4 28 31 34 35 0
4 24 31 34 35 0
4 24 28 34 35 0
4 24 28 31 35 0
4 24 28 31 34 0
25 29 32 34 36 0
5 29 32 34 36 0
5 25 32 34 36 0
5 25 29 34 36 0
5 25 29 32 36 0
5 25 29 32 34 0
26 30 33 35 36 0
6 30 33 35 36 0
6 26 33 35 36 0
6 26 30 35 36 0
6 26 30 33 36 0
6 26 30 33 35 0
22 37 38 39 40 0
7 37 38 39 40 0
7 22 38 39 40 0
7 22 37 39 40 0
7 22 37 38 40 0
7 22 37 38 39 0
23 37 41 42 43 0
8 37 41 42 43 0
8 23 41 42 43 0
8 23 37 42 43 0
8 23 37 41 43 0
8 23 37 41 42 0
24 38 41 44 45 0
9 38 41 44 45 0
9 24 41 44 45 0
9 24 38 44 45 0
9 24 38 41 45 0
9 24 38 41 44 0
25 39 42 44 46 0
10 39 42 44 46 0
10 25 42 44 46 0
10 25 39 44 46 0
10 25 39 42 46 0
10 25 39 42 44 0
26 40 43 45 46 0
11 40 43 45 46 0
11 26 43 45 46 0
11 26 40 45 46 0
11 26 40 43 46 0
11 26 40 43 45 0
27 37 47 48 49 0
12 37 47 48 49 0
12 27 47 48 49 0
12 27 37 48 49 0
12 27 37 47 49 0
12 27 37 47 48 0
28 38 47 50 51 0
13 38 47 50 51 0
13 28 47 50 51 0
13 28 38 50 51 0
13 28 38 47 51 0
13 28 38 47 50 0
29 39 48 50 52 0
14 39 48 50 52 0
14 29 48 50 52 0
14 29 39 50 52 0
14 29 39 48 52 0
14 29 39 48 50 0
30 40 49 51 52 0
15 40 49 51 52 0
15 30 49 51 52 0
15 30 40 51 52 0
15 30 40 49 52 0
15 30 40 49 51 0
31 41 47 53 54 0
16 41 47 53 54 0
16 31 47 53 54 0
16 31 41 53 54 0
16 31 41 47 54 0
16 31 41 47 53 0
32 42 48 53 55 0
17 42 48 53 55 0
17 32 48 53 55 0
17 32 42 53 55 0
17 32 42 48 55 0
17 32 42 48 53 0
33 43 49 54 55 0
18 43 49 54 55 0
18 33 49 54 55 0
18 33 43 54 55 0
18 33 43 49 55 0
18 33 43 49 54 0
34 44 50 53 56 0
19 44 50 53 56 0
19 34 50 53 56 0
19 34 44 53 56 0
19 34 44 50 56 0
19 34 44 50 53 0
35 45 51 54 56 0
20 45 51 54 56 0
20 35 51 54 56 0
20 35 45 54 56 0
20 35 45 51 56 0
20 35 45 51 54 0
36 46 52 55 56 0
21 46 52 55 56 0
21 36 52 55 56 0
21 36 46 55 56 0
21 36 46 52 56 0
21 36 46 52 55 0
57 58 59 60 61 0
1 58 59 60 61 0
1 57 59 60 61 0
1 57 58 60 61 0
1 57 58 59 61 0
1 57 58 59 60 0
57 62 63 64 65 0
2 62 63 64 65 0
2 57 63 64 65 0
2 57 62 64 65 0
2 57 62 63 65 0
2 57 62 63 64 0
58 62 66 67 68 0
3 62 66 67 68 0
3 58 66 67 68 0
3 58 62 67 68 0
3 58 62 66 68 0
3 58 62 66 67 0
59 63 66 69 70 0
4 63 66 69 70 0
4 59 66 69 70 0
4 59 63 69 70 0
4 59 63 66 70 0
4 59 63 66 69 0
60 64 67 69 71 0
5 64 67 69 71 0
5 60 67 69 71 0
5 60 64 69 71 0
5 60 64 67 71 0
5 60 64 67 69 0
61 65 68 70 71 0
6 65 68 70 71 0
6 61 68 70 71 0
6 61 65 70 71 0
6 61 65 68 71 0
6 61 65 68 70 0
57 72 73 74 75 0
7 72 73 74 75 0
7 57 73 74 75 0
7 57 72 74 75 0
7 57 72 73 75 0
7 57 72 73 74 0
58 72 76 77 78 0
8 72 76 77 78 0
8 58 76 77 78 0
8 58 72 77 78 0
8 58 72 76 78 0
8 58 72 76 77 0
59 73 76 79 80 0
9 73 76 79 80 0
9 59 76 79 80 0
9 59 73 79 80 0
9 59 73 76 80 0
9 59 73 76 79 0
60 74 77 79 81 0
10 74 77 79 81 0
10 60 77 79 81 0
10 60 74 79 81 0
10 60 74 77 81 0
10 60 74 77 79 0
61 75 78 80 81 0
11 75 78 80 81 0
11 61 78 80 81 0
11 61 75 80 81 0
11 61 75 78 81 0
11 61 75 78 80 0
62 72 82 83 84 0
12 72 82 83 84 0
12 62 82 83 84 0
12 62 72 83 84 0
12 62 72 82 84 0
12 62 72 82 83 0
63 73 82 85 86 0
13 73 82 85 86 0
13 63 82 85 86 0
13 63 73 85 86 0
13 63 73 82 86 0
13 63 73 82 85 0
64 74 83 85 87 0
14 74 83 85 87 0
14 64 83 85 87 0
14 64 74 85 87 0
14 64 74 83 87 0
14 64 74 83 85 0
65 75 84 86 87 0
15 75 84 86 87 0
15 65 84 86 87 0
15 65 75 86 87 0
15 65 75 84 87 0
15 65 75 84 86 0
66 76 82 88 89 0
16 76 82 88 89 0
16 66 82 88 89 0
16 66 76 88 89 0
16 66 76 82 89 0
16 66 76 82 88 0
67 77 83 88 90 0
17 77 83 88 90 0
17 67 83 88 90 0
17 67 77 88 90 0
17 67 77 83 90 0
17 67 77 83 88 0
68 78 84 89 90 0
18 78 84 89 90 0
18 68 84 89 90 0
18 68 78 89 90 0
18 68 78 84 90 0
18 68 78 84 89 0
69 79 85 88 91 0
19 79 85 88 91 0
19 69 85 88 91 0
19 69 79 88 91 0
19 69 79 85 91 0
19 69 79 85 88 0
70 80 86 89 91 0
20 80 86 89 91 0
20 70 86 89 91 0
20 70 80 89 91 0
20 70 80 86 91 0
20 70 80 86 89 0
71 81 87 90 91 0
21 81 87 90 91 0
21 71 87 90 91 0
21 71 81 90 91 0
21 71 81 87 91 0
21 71 81 87 90 0
57 92 93 94 95 0
22 92 93 94 95 0
22 57 93 94 95 0
22 57 92 94 95 0
22 57 92 93 95 0
22 57 92 93 94 0
58 92 96 97 98 0
23 92 96 97 98 0
23 58 96 97 98 0
23 58 92 97 98 0
23 58 92 96 98 0
23 58 92 96 97 0
59 93 96 99 100 0
24 93 96 99 100 0
24 59 96 99 100 0
24 59 93 99 100 0
24 59 93 96 100 0
24 59 93 96 99 0
60 94 97 99 101 0
25 94 97 99 101 0
25 60 97 99 101 0
25 60 94 99 101 0
25 60 94 97 101 0
25 60 94 97 99 0
61 95 98 100 101 0
26 95 98 100 101 0
26 61 98 100 101 0
26 61 95 100 101 0
26 61 95 98 101 0
26 61 95 98 100 0
62 92 102 103 104 0
27 92 102 103 104 0
27 62 102 103 104 0
27 62 92 103 104 0
27 62 92 102 104 0
27 62 92 102 103 0
63 93 102 105 106 0
28 93 102 105 106 0
28 63 102 105 106 0
28 63 93 105 106 0
28 63 93 102 106 0
28 63 93 102 105 0
64 94 103 105 107 0
29 94 103 105 107 0
29 64 103 105 107 0
29 64 94 105 107 0
29 64 94 103 107 0
29 64 94 103 105 0
65 95 104 106 107 0
30 95 104 106 107 0
30 65 104 106 107 0
30 65 95 106 107 0
30 65 95 104 107 0
30 65 95 104 106 0
66 96 102 108 109 0
31 96 102 108 109 0
31 66 102 108 109 0
31 66 96 108 109 0
31 66 96 102 109 0
31 66 96 102 108 0
67 97 103 108 110 0
32 97 103 108 110 0
32 67 103 108 110 0
32 67 97 108 110 0
32 67 97 103 110 0
32 67 97 103 108 0
68 98 104 109 110 0
33 98 104 109 110 0
33 68 104 109 110 0
33 68 98 109 110 0
33 68 98 104 110 0
33 68 98 104 109 0
69 99 105 108 111 0
34 99 105 108 111 0
34 69 105 108 111 0
34 69 99 108 111 0
34 69 99 105 111 0
34 69 99 105 108 0
70 100 106 109 111 0
35 100 106 109 111 0
35 70 106 109 111 0
35 70 100 109 111 0
35 70 100 106 111 0
35 70 100 106 109 0
71 101 107 110 111 0
36 101 107 110 111 0
36 71 107 110 111 0
36 71 101 110 111 0
36 71 101 107 111 0
36 71 101 107 110 0
72 92 112 113 114 0
37 92 112 113 114 0
37 72 112 113 114 0
37 72 92 113 114 0
37 72 92 112 114 0
37 72 92 112 113 0
73 93 112 115 116 0
38 93 112 115 116 0
38 73 112 115 116 0
38 73 93 115 116 0
38 73 93 112 116 0
38 73 93 112 115 0
74 94 113 115 117 0
39 94 113 115 117 0
39 74 113 115 117 0
39 74 94 115 117 0
39 74 94 113 117 0
39 74 94 113 115 0
75 95 114 116 117 0
40 95 114 116 117 0
40 75 114 116 117 0
40 75 95 116 117 0
40 75 95 114 117 0
40 75 95 114 116 0
76 96 112 118 119 0
41 96 112 118 119 0
41 76 112 118 119 0
41 76 96 118 119 0
41 76 96 112 119 0
41 76 96 112 118 0
77 97 113 118 120 0
42 97 113 118 120 0
42 77 113 118 120 0
42 77 97 118 120 0
42 77 97 113 120 0
42 77 97 113 118 0
78 98 114 119 120 0
43 98 114 119 120 0
43 78 114 119 120 0
43 78 98 119 120 0
43 78 98 114 120 0
43 78 98 114 119 0
79 99 115 118 121 0
44 99 115 118 121 0
44 79 115 118 121 0
44 79 99 118 121 0
44 79 99 115 121 0
44 79 99 115 118 0
80 100 116 119 121 0
45 100 116 119 121 0
45 80 116 119 121 0
45 80 100 119 121 0
45 80 100 116 121 0
45 80 100 116 119 0
81 101 117 120 121 0
46 101 117 120 121 0
46 81 117 120 121 0
46 81 101 120 121 0
46 81 101 117 121 0
46 81 101 117 120 0
82 102 112 122 123 0
47 102 112 122 123 0
47 82 112 122 123 0
47 82 102 122 123 0
47 82 102 112 123 0
47 82 102 112 122 0
83 103 113 122 124 0
48 103 113 122 124 0
48 83 113 122 124 0
48 83 103 122 124 0
48 83 103 113 124 0
48 83 103 113 122 0
84 104 114 123 124 0
49 104 114 123 124 0
49 84 114 123 124 0
49 84 104 123 124 0
49 84 104 114 124 0
49 84 104 114 123 0
85 105 115 122 125 0
50 105 115 122 125 0
50 85 115 122 125 0
50 85 105 122 125 0
50 85 105 115 125 0
50 85 105 115 122 0
86 106 116 123 125 0
51 106 116 123 125 0
51 86 116 123 125 0
51 86 106 123 125 0
51 86 106 116 125 0
51 86 106 116 123 0
87 107 117 124 125 0
52 107 117 124 125 0
52 87 117 124 125 0
52 87 107 124 125 0
52 87 107 117 125 0
52 87 107 117 124 0
88 108 118 122 126 0
53 108 118 122 126 0
53 88 118 122 126 0
53 88 108 122 126 0
53 88 108 118 126 0
53 88 108 118 122 0
89 109 119 123 126 0
54 109 119 123 126 0
54 89 119 123 126 0
54 89 109 123 126 0
54 89 109 119 126 0
54 89 109 119 123 0
90 110 120 124 126 0
55 110 120 124 126 0
55 90 120 124 126 0
55 90 110 124 126 0
55 90 110 120 126 0
55 90 110 120 124 0
91 111 121 125 126 0
56 111 121 125 126 0
56 91 121 125 126 0
56 91 111 125 126 0
56 91 111 121 126 0
56 91 111 121 125 0
