c canonical (k,d)=(4,3) d-degree EKR counterexample instance
c n 10
c variables are lexicographically ordered 4-subsets of [n]
p cnf 210 2415
-1 -196 0
-1 -197 0
-1 -198 0
-1 -199 0
-1 -200 0
-1 -201 0
-1 -202 0
-1 -203 0
-1 -204 0
-1 -205 0
-1 -206 0
-1 -207 0
-1 -208 0
-1 -209 0
-1 -210 0
-2 -186 0
-2 -187 0
-2 -188 0
-2 -189 0
-2 -190 0
-2 -191 0
-2 -192 0
-2 -193 0
-2 -194 0
-2 -195 0
-2 -206 0
-2 -207 0
-2 -208 0
-2 -209 0
-2 -210 0
-3 -180 0
-3 -181 0
-3 -182 0
-3 -183 0
-3 -184 0
-3 -185 0
-3 -192 0
-3 -193 0
-3 -194 0
-3 -195 0
-3 -202 0
-3 -203 0
-3 -204 0
-3 -205 0
-3 -210 0
-4 -177 0
-4 -178 0
-4 -179 0
-4 -183 0
-4 -184 0
-4 -185 0
-4 -189 0
-4 -190 0
-4 -191 0
-4 -195 0
-4 -199 0
-4 -200 0
-4 -201 0
-4 -205 0
-4 -209 0
-5 -176 0
-5 -178 0
-5 -179 0
-5 -181 0
-5 -182 0
-5 -185 0
-5 -187 0
-5 -188 0
-5 -191 0
-5 -194 0
-5 -197 0
-5 -198 0
-5 -201 0
-5 -204 0
-5 -208 0
-6 -176 0
-6 -177 0
-6 -179 0
-6 -180 0
-6 -182 0
-6 -184 0
-6 -186 0
-6 -188 0
-6 -190 0
-6 -193 0
-6 -196 0
-6 -198 0
-6 -200 0
-6 -203 0
-6 -207 0
-7 -176 0
-7 -177 0
-7 -178 0
-7 -180 0
-7 -181 0
-7 -183 0
-7 -186 0
-7 -187 0
-7 -189 0
-7 -192 0
-7 -196 0
-7 -197 0
-7 -199 0
-7 -202 0
-7 -206 0
-8 -166 0
-8 -167 0
-8 -168 0
-8 -169 0
-8 -170 0
-8 -171 0
-8 -172 0
-8 -173 0
-8 -174 0
-8 -175 0
-8 -206 0
-8 -207 0
-8 -208 0
-8 -209 0
-8 -210 0
-9 -160 0
-9 -161 0
-9 -162 0
-9 -163 0
-9 -164 0
-9 -165 0
-9 -172 0
-9 -173 0
-9 -174 0
-9 -175 0
-9 -202 0
-9 -203 0
-9 -204 0
-9 -205 0
-9 -210 0
-10 -157 0
-10 -158 0
-10 -159 0
-10 -163 0
-10 -164 0
-10 -165 0
-10 -169 0
-10 -170 0
-10 -171 0
-10 -175 0
-10 -199 0
-10 -200 0
-10 -201 0
-10 -205 0
-10 -209 0
-11 -156 0
-11 -158 0
-11 -159 0
-11 -161 0
-11 -162 0
-11 -165 0
-11 -167 0
-11 -168 0
-11 -171 0
-11 -174 0
-11 -197 0
-11 -198 0
-11 -201 0
-11 -204 0
-11 -208 0
-12 -156 0
-12 -157 0
-12 -159 0
-12 -160 0
-12 -162 0
-12 -164 0
-12 -166 0
-12 -168 0
-12 -170 0
-12 -173 0
-12 -196 0
-12 -198 0
-12 -200 0
-12 -203 0
-12 -207 0
-13 -156 0
-13 -157 0
-13 -158 0
-13 -160 0
-13 -161 0
-13 -163 0
-13 -166 0
-13 -167 0
-13 -169 0
-13 -172 0
-13 -196 0
-13 -197 0
-13 -199 0
-13 -202 0
-13 -206 0
-14 -150 0
-14 -151 0
-14 -152 0
-14 -153 0
-14 -154 0
-14 -155 0
-14 -172 0
-14 -173 0
-14 -174 0
-14 -175 0
-14 -192 0
-14 -193 0
-14 -194 0
-14 -195 0
-14 -210 0
-15 -147 0
-15 -148 0
-15 -149 0
-15 -153 0
-15 -154 0
-15 -155 0
-15 -169 0
-15 -170 0
-15 -171 0
-15 -175 0
-15 -189 0
-15 -190 0
-15 -191 0
-15 -195 0
-15 -209 0
-16 -146 0
-16 -148 0
-16 -149 0
-16 -151 0
-16 -152 0
-16 -155 0
-16 -167 0
-16 -168 0
-16 -171 0
-16 -174 0
-16 -187 0
-16 -188 0
-16 -191 0
-16 -194 0
-16 -208 0
-17 -146 0
-17 -147 0
-17 -149 0
-17 -150 0
-17 -152 0
-17 -154 0
-17 -166 0
-17 -168 0
-17 -170 0
-17 -173 0
-17 -186 0
-17 -188 0
-17 -190 0
-17 -193 0
-17 -207 0
-18 -146 0
-18 -147 0
-18 -148 0
-18 -150 0
-18 -151 0
-18 -153 0
-18 -166 0
-18 -167 0
-18 -169 0
-18 -172 0
-18 -186 0
-18 -187 0
-18 -189 0
-18 -192 0
-18 -206 0
-19 -143 0
-19 -144 0
-19 -145 0
-19 -153 0
-19 -154 0
-19 -155 0
-19 -163 0
-19 -164 0
-19 -165 0
-19 -175 0
-19 -183 0
-19 -184 0
-19 -185 0
-19 -195 0
-19 -205 0
-20 -142 0
-20 -144 0
-20 -145 0
-20 -151 0
-20 -152 0
-20 -155 0
-20 -161 0
-20 -162 0
-20 -165 0
-20 -174 0
-20 -181 0
-20 -182 0
-20 -185 0
-20 -194 0
-20 -204 0
-21 -142 0
-21 -143 0
-21 -145 0
-21 -150 0
-21 -152 0
-21 -154 0
-21 -160 0
-21 -162 0
-21 -164 0
-21 -173 0
-21 -180 0
-21 -182 0
-21 -184 0
-21 -193 0
-21 -203 0
-22 -142 0
-22 -143 0
-22 -144 0
-22 -150 0
-22 -151 0
-22 -153 0
-22 -160 0
-22 -161 0
-22 -163 0
-22 -172 0
-22 -180 0
-22 -181 0
-22 -183 0
-22 -192 0
-22 -202 0
-23 -141 0
-23 -144 0
-23 -145 0
-23 -148 0
-23 -149 0
-23 -155 0
-23 -158 0
-23 -159 0
-23 -165 0
-23 -171 0
-23 -178 0
-23 -179 0
-23 -185 0
-23 -191 0
-23 -201 0
-24 -141 0
-24 -143 0
-24 -145 0
-24 -147 0
-24 -149 0
-24 -154 0
-24 -157 0
-24 -159 0
-24 -164 0
-24 -170 0
-24 -177 0
-24 -179 0
-24 -184 0
-24 -190 0
-24 -200 0
-25 -141 0
-25 -143 0
-25 -144 0
-25 -147 0
-25 -148 0
-25 -153 0
-25 -157 0
-25 -158 0
-25 -163 0
-25 -169 0
-25 -177 0
-25 -178 0
-25 -183 0
-25 -189 0
-25 -199 0
-26 -141 0
-26 -142 0
-26 -145 0
-26 -146 0
-26 -149 0
-26 -152 0
-26 -156 0
-26 -159 0
-26 -162 0
-26 -168 0
-26 -176 0
-26 -179 0
-26 -182 0
-26 -188 0
-26 -198 0
-27 -141 0
-27 -142 0
-27 -144 0
-27 -146 0
-27 -148 0
-27 -151 0
-27 -156 0
-27 -158 0
-27 -161 0
-27 -167 0
-27 -176 0
-27 -178 0
-27 -181 0
-27 -187 0
-27 -197 0
-28 -141 0
-28 -142 0
-28 -143 0
-28 -146 0
-28 -147 0
-28 -150 0
-28 -156 0
-28 -157 0
-28 -160 0
-28 -166 0
-28 -176 0
-28 -177 0
-28 -180 0
-28 -186 0
-28 -196 0
-29 -131 0
-29 -132 0
-29 -133 0
-29 -134 0
-29 -135 0
-29 -136 0
-29 -137 0
-29 -138 0
-29 -139 0
-29 -140 0
-29 -206 0
-29 -207 0
-29 -208 0
-29 -209 0
-29 -210 0
-30 -125 0
-30 -126 0
-30 -127 0
-30 -128 0
-30 -129 0
-30 -130 0
-30 -137 0
-30 -138 0
-30 -139 0
-30 -140 0
-30 -202 0
-30 -203 0
-30 -204 0
-30 -205 0
-30 -210 0
-31 -122 0
-31 -123 0
-31 -124 0
-31 -128 0
-31 -129 0
-31 -130 0
-31 -134 0
-31 -135 0
-31 -136 0
-31 -140 0
-31 -199 0
-31 -200 0
-31 -201 0
-31 -205 0
-31 -209 0
-32 -121 0
-32 -123 0
-32 -124 0
-32 -126 0
-32 -127 0
-32 -130 0
-32 -132 0
-32 -133 0
-32 -136 0
-32 -139 0
-32 -197 0
-32 -198 0
-32 -201 0
-32 -204 0
-32 -208 0
-33 -121 0
-33 -122 0
-33 -124 0
-33 -125 0
-33 -127 0
-33 -129 0
-33 -131 0
-33 -133 0
-33 -135 0
-33 -138 0
-33 -196 0
-33 -198 0
-33 -200 0
-33 -203 0
-33 -207 0
-34 -121 0
-34 -122 0
-34 -123 0
-34 -125 0
-34 -126 0
-34 -128 0
-34 -131 0
-34 -132 0
-34 -134 0
-34 -137 0
-34 -196 0
-34 -197 0
-34 -199 0
-34 -202 0
-34 -206 0
-35 -115 0
-35 -116 0
-35 -117 0
-35 -118 0
-35 -119 0
-35 -120 0
-35 -137 0
-35 -138 0
-35 -139 0
-35 -140 0
-35 -192 0
-35 -193 0
-35 -194 0
-35 -195 0
-35 -210 0
-36 -112 0
-36 -113 0
-36 -114 0
-36 -118 0
-36 -119 0
-36 -120 0
-36 -134 0
-36 -135 0
-36 -136 0
-36 -140 0
-36 -189 0
-36 -190 0
-36 -191 0
-36 -195 0
-36 -209 0
-37 -111 0
-37 -113 0
-37 -114 0
-37 -116 0
-37 -117 0
-37 -120 0
-37 -132 0
-37 -133 0
-37 -136 0
-37 -139 0
-37 -187 0
-37 -188 0
-37 -191 0
-37 -194 0
-37 -208 0
-38 -111 0
-38 -112 0
-38 -114 0
-38 -115 0
-38 -117 0
-38 -119 0
-38 -131 0
-38 -133 0
-38 -135 0
-38 -138 0
-38 -186 0
-38 -188 0
-38 -190 0
-38 -193 0
-38 -207 0
-39 -111 0
-39 -112 0
-39 -113 0
-39 -115 0
-39 -116 0
-39 -118 0
-39 -131 0
-39 -132 0
-39 -134 0
-39 -137 0
-39 -186 0
-39 -187 0
-39 -189 0
-39 -192 0
-39 -206 0
-40 -108 0
-40 -109 0
-40 -110 0
-40 -118 0
-40 -119 0
-40 -120 0
-40 -128 0
-40 -129 0
-40 -130 0
-40 -140 0
-40 -183 0
-40 -184 0
-40 -185 0
-40 -195 0
-40 -205 0
-41 -107 0
-41 -109 0
-41 -110 0
-41 -116 0
-41 -117 0
-41 -120 0
-41 -126 0
-41 -127 0
-41 -130 0
-41 -139 0
-41 -181 0
-41 -182 0
-41 -185 0
-41 -194 0
-41 -204 0
-42 -107 0
-42 -108 0
-42 -110 0
-42 -115 0
-42 -117 0
-42 -119 0
-42 -125 0
-42 -127 0
-42 -129 0
-42 -138 0
-42 -180 0
-42 -182 0
-42 -184 0
-42 -193 0
-42 -203 0
-43 -107 0
-43 -108 0
-43 -109 0
-43 -115 0
-43 -116 0
-43 -118 0
-43 -125 0
-43 -126 0
-43 -128 0
-43 -137 0
-43 -180 0
-43 -181 0
-43 -183 0
-43 -192 0
-43 -202 0
-44 -106 0
-44 -109 0
-44 -110 0
-44 -113 0
-44 -114 0
-44 -120 0
-44 -123 0
-44 -124 0
-44 -130 0
-44 -136 0
-44 -178 0
-44 -179 0
-44 -185 0
-44 -191 0
-44 -201 0
-45 -106 0
-45 -108 0
-45 -110 0
-45 -112 0
-45 -114 0
-45 -119 0
-45 -122 0
-45 -124 0
-45 -129 0
-45 -135 0
-45 -177 0
-45 -179 0
-45 -184 0
-45 -190 0
-45 -200 0
-46 -106 0
-46 -108 0
-46 -109 0
-46 -112 0
-46 -113 0
-46 -118 0
-46 -122 0
-46 -123 0
-46 -128 0
-46 -134 0
-46 -177 0
-46 -178 0
-46 -183 0
-46 -189 0
-46 -199 0
-47 -106 0
-47 -107 0
-47 -110 0
-47 -111 0
-47 -114 0
-47 -117 0
-47 -121 0
-47 -124 0
-47 -127 0
-47 -133 0
-47 -176 0
-47 -179 0
-47 -182 0
-47 -188 0
-47 -198 0
-48 -106 0
-48 -107 0
-48 -109 0
-48 -111 0
-48 -113 0
-48 -116 0
-48 -121 0
-48 -123 0
-48 -126 0
-48 -132 0
-48 -176 0
-48 -178 0
-48 -181 0
-48 -187 0
-48 -197 0
-49 -106 0
-49 -107 0
-49 -108 0
-49 -111 0
-49 -112 0
-49 -115 0
-49 -121 0
-49 -122 0
-49 -125 0
-49 -131 0
-49 -176 0
-49 -177 0
-49 -180 0
-49 -186 0
-49 -196 0
-50 -100 0
-50 -101 0
-50 -102 0
-50 -103 0
-50 -104 0
-50 -105 0
-50 -137 0
-50 -138 0
-50 -139 0
-50 -140 0
-50 -172 0
-50 -173 0
-50 -174 0
-50 -175 0
-50 -210 0
-51 -97 0
-51 -98 0
-51 -99 0
-51 -103 0
-51 -104 0
-51 -105 0
-51 -134 0
-51 -135 0
-51 -136 0
-51 -140 0
-51 -169 0
-51 -170 0
-51 -171 0
-51 -175 0
-51 -209 0
-52 -96 0
-52 -98 0
-52 -99 0
-52 -101 0
-52 -102 0
-52 -105 0
-52 -132 0
-52 -133 0
-52 -136 0
-52 -139 0
-52 -167 0
-52 -168 0
-52 -171 0
-52 -174 0
-52 -208 0
-53 -96 0
-53 -97 0
-53 -99 0
-53 -100 0
-53 -102 0
-53 -104 0
-53 -131 0
-53 -133 0
-53 -135 0
-53 -138 0
-53 -166 0
-53 -168 0
-53 -170 0
-53 -173 0
-53 -207 0
-54 -96 0
-54 -97 0
-54 -98 0
-54 -100 0
-54 -101 0
-54 -103 0
-54 -131 0
-54 -132 0
-54 -134 0
-54 -137 0
-54 -166 0
-54 -167 0
-54 -169 0
-54 -172 0
-54 -206 0
-55 -93 0
-55 -94 0
-55 -95 0
-55 -103 0
-55 -104 0
-55 -105 0
-55 -128 0
-55 -129 0
-55 -130 0
-55 -140 0
-55 -163 0
-55 -164 0
-55 -165 0
-55 -175 0
-55 -205 0
-56 -92 0
-56 -94 0
-56 -95 0
-56 -101 0
-56 -102 0
-56 -105 0
-56 -126 0
-56 -127 0
-56 -130 0
-56 -139 0
-56 -161 0
-56 -162 0
-56 -165 0
-56 -174 0
-56 -204 0
-57 -92 0
-57 -93 0
-57 -95 0
-57 -100 0
-57 -102 0
-57 -104 0
-57 -125 0
-57 -127 0
-57 -129 0
-57 -138 0
-57 -160 0
-57 -162 0
-57 -164 0
-57 -173 0
-57 -203 0
-58 -92 0
-58 -93 0
-58 -94 0
-58 -100 0
-58 -101 0
-58 -103 0
-58 -125 0
-58 -126 0
-58 -128 0
-58 -137 0
-58 -160 0
-58 -161 0
-58 -163 0
-58 -172 0
-58 -202 0
-59 -91 0
-59 -94 0
-59 -95 0
-59 -98 0
-59 -99 0
-59 -105 0
-59 -123 0
-59 -124 0
-59 -130 0
-59 -136 0
-59 -158 0
-59 -159 0
-59 -165 0
-59 -171 0
-59 -201 0
-60 -91 0
-60 -93 0
-60 -95 0
-60 -97 0
-60 -99 0
-60 -104 0
-60 -122 0
-60 -124 0
-60 -129 0
-60 -135 0
-60 -157 0
-60 -159 0
-60 -164 0
-60 -170 0
-60 -200 0
-61 -91 0
-61 -93 0
-61 -94 0
-61 -97 0
-61 -98 0
-61 -103 0
-61 -122 0
-61 -123 0
-61 -128 0
-61 -134 0
-61 -157 0
-61 -158 0
-61 -163 0
-61 -169 0
-61 -199 0
-62 -91 0
-62 -92 0
-62 -95 0
-62 -96 0
-62 -99 0
-62 -102 0
-62 -121 0
-62 -124 0
-62 -127 0
-62 -133 0
-62 -156 0
-62 -159 0
-62 -162 0
-62 -168 0
-62 -198 0
-63 -91 0
-63 -92 0
-63 -94 0
-63 -96 0
-63 -98 0
-63 -101 0
-63 -121 0
-63 -123 0
-63 -126 0
-63 -132 0
-63 -156 0
-63 -158 0
-63 -161 0
-63 -167 0
-63 -197 0
-64 -91 0
-64 -92 0
-64 -93 0
-64 -96 0
-64 -97 0
-64 -100 0
-64 -121 0
-64 -122 0
-64 -125 0
-64 -131 0
-64 -156 0
-64 -157 0
-64 -160 0
-64 -166 0
-64 -196 0
-65 -88 0
-65 -89 0
-65 -90 0
-65 -103 0
-65 -104 0
-65 -105 0
-65 -118 0
-65 -119 0
-65 -120 0
-65 -140 0
-65 -153 0
-65 -154 0
-65 -155 0
-65 -175 0
-65 -195 0
-66 -87 0
-66 -89 0
-66 -90 0
-66 -101 0
-66 -102 0
-66 -105 0
-66 -116 0
-66 -117 0
-66 -120 0
-66 -139 0
-66 -151 0
-66 -152 0
-66 -155 0
-66 -174 0
-66 -194 0
-67 -87 0
-67 -88 0
-67 -90 0
-67 -100 0
-67 -102 0
-67 -104 0
-67 -115 0
-67 -117 0
-67 -119 0
-67 -138 0
-67 -150 0
-67 -152 0
-67 -154 0
-67 -173 0
-67 -193 0
-68 -87 0
-68 -88 0
-68 -89 0
-68 -100 0
-68 -101 0
-68 -103 0
-68 -115 0
-68 -116 0
-68 -118 0
-68 -137 0
-68 -150 0
-68 -151 0
-68 -153 0
-68 -172 0
-68 -192 0
-69 -86 0
-69 -89 0
-69 -90 0
-69 -98 0
-69 -99 0
-69 -105 0
-69 -113 0
-69 -114 0
-69 -120 0
-69 -136 0
-69 -148 0
-69 -149 0
-69 -155 0
-69 -171 0
-69 -191 0
-70 -86 0
-70 -88 0
-70 -90 0
-70 -97 0
-70 -99 0
-70 -104 0
-70 -112 0
-70 -114 0
-70 -119 0
-70 -135 0
-70 -147 0
-70 -149 0
-70 -154 0
-70 -170 0
-70 -190 0
-71 -86 0
-71 -88 0
-71 -89 0
-71 -97 0
-71 -98 0
-71 -103 0
-71 -112 0
-71 -113 0
-71 -118 0
-71 -134 0
-71 -147 0
-71 -148 0
-71 -153 0
-71 -169 0
-71 -189 0
-72 -86 0
-72 -87 0
-72 -90 0
-72 -96 0
-72 -99 0
-72 -102 0
-72 -111 0
-72 -114 0
-72 -117 0
-72 -133 0
-72 -146 0
-72 -149 0
-72 -152 0
-72 -168 0
-72 -188 0
-73 -86 0
-73 -87 0
-73 -89 0
-73 -96 0
-73 -98 0
-73 -101 0
-73 -111 0
-73 -113 0
-73 -116 0
-73 -132 0
-73 -146 0
-73 -148 0
-73 -151 0
-73 -167 0
-73 -187 0
-74 -86 0
-74 -87 0
-74 -88 0
-74 -96 0
-74 -97 0
-74 -100 0
-74 -111 0
-74 -112 0
-74 -115 0
-74 -131 0
-74 -146 0
-74 -147 0
-74 -150 0
-74 -166 0
-74 -186 0
-75 -85 0
-75 -89 0
-75 -90 0
-75 -94 0
-75 -95 0
-75 -105 0
-75 -109 0
-75 -110 0
-75 -120 0
-75 -130 0
-75 -144 0
-75 -145 0
-75 -155 0
-75 -165 0
-75 -185 0
-76 -85 0
-76 -88 0
-76 -90 0
-76 -93 0
-76 -95 0
-76 -104 0
-76 -108 0
-76 -110 0
-76 -119 0
-76 -129 0
-76 -143 0
-76 -145 0
-76 -154 0
-76 -164 0
-76 -184 0
-77 -85 0
-77 -88 0
-77 -89 0
-77 -93 0
-77 -94 0
-77 -103 0
-77 -108 0
-77 -109 0
-77 -118 0
-77 -128 0
-77 -143 0
-77 -144 0
-77 -153 0
-77 -163 0
-77 -183 0
-78 -85 0
-78 -87 0
-78 -90 0
-78 -92 0
-78 -95 0
-78 -102 0
-78 -107 0
-78 -110 0
-78 -117 0
-78 -127 0
-78 -142 0
-78 -145 0
-78 -152 0
-78 -162 0
-78 -182 0
-79 -85 0
-79 -87 0
-79 -89 0
-79 -92 0
-79 -94 0
-79 -101 0
-79 -107 0
-79 -109 0
-79 -116 0
-79 -126 0
-79 -142 0
-79 -144 0
-79 -151 0
-79 -161 0
-79 -181 0
-80 -85 0
-80 -87 0
-80 -88 0
-80 -92 0
-80 -93 0
-80 -100 0
-80 -107 0
-80 -108 0
-80 -115 0
-80 -125 0
-80 -142 0
-80 -143 0
-80 -150 0
-80 -160 0
-80 -180 0
-81 -85 0
-81 -86 0
-81 -90 0
-81 -91 0
-81 -95 0
-81 -99 0
-81 -106 0
-81 -110 0
-81 -114 0
-81 -124 0
-81 -141 0
-81 -145 0
-81 -149 0
-81 -159 0
-81 -179 0
-82 -85 0
-82 -86 0
-82 -89 0
-82 -91 0
-82 -94 0
-82 -98 0
-82 -106 0
-82 -109 0
-82 -113 0
-82 -123 0
-82 -141 0
-82 -144 0
-82 -148 0
-82 -158 0
-82 -178 0
-83 -85 0
-83 -86 0
-83 -88 0
-83 -91 0
-83 -93 0
-83 -97 0
-83 -106 0
-83 -108 0
-83 -112 0
-83 -122 0
-83 -141 0
-83 -143 0
-83 -147 0
-83 -157 0
-83 -177 0
-84 -85 0
-84 -86 0
-84 -87 0
-84 -91 0
-84 -92 0
-84 -96 0
-84 -106 0
-84 -107 0
-84 -111 0
-84 -121 0
-84 -141 0
-84 -142 0
-84 -146 0
-84 -156 0
-84 -176 0
-85 -206 0
-85 -207 0
-85 -208 0
-85 -209 0
-85 -210 0
-86 -202 0
-86 -203 0
-86 -204 0
-86 -205 0
-86 -210 0
-87 -199 0
-87 -200 0
-87 -201 0
-87 -205 0
-87 -209 0
-88 -197 0
-88 -198 0
-88 -201 0
-88 -204 0
-88 -208 0
-89 -196 0
-89 -198 0
-89 -200 0
-89 -203 0
-89 -207 0
-90 -196 0
-90 -197 0
-90 -199 0
-90 -202 0
-90 -206 0
-91 -192 0
-91 -193 0
-91 -194 0
-91 -195 0
-91 -210 0
-92 -189 0
-92 -190 0
-92 -191 0
-92 -195 0
-92 -209 0
-93 -187 0
-93 -188 0
-93 -191 0
-93 -194 0
-93 -208 0
-94 -186 0
-94 -188 0
-94 -190 0
-94 -193 0
-94 -207 0
-95 -186 0
-95 -187 0
-95 -189 0
-95 -192 0
-95 -206 0
-96 -183 0
-96 -184 0
-96 -185 0
-96 -195 0
-96 -205 0
-97 -181 0
-97 -182 0
-97 -185 0
-97 -194 0
-97 -204 0
-98 -180 0
-98 -182 0
-98 -184 0
-98 -193 0
-98 -203 0
-99 -180 0
-99 -181 0
-99 -183 0
-99 -192 0
-99 -202 0
-100 -178 0
-100 -179 0
-100 -185 0
-100 -191 0
-100 -201 0
-101 -177 0
-101 -179 0
-101 -184 0
-101 -190 0
-101 -200 0
-102 -177 0
-102 -178 0
-102 -183 0
-102 -189 0
-102 -199 0
-103 -176 0
-103 -179 0
-103 -182 0
-103 -188 0
-103 -198 0
-104 -176 0
-104 -178 0
-104 -181 0
-104 -187 0
-104 -197 0
-105 -176 0
-105 -177 0
-105 -180 0
-105 -186 0
-105 -196 0
-106 -172 0
-106 -173 0
-106 -174 0
-106 -175 0
-106 -210 0
-107 -169 0
-107 -170 0
-107 -171 0
-107 -175 0
-107 -209 0
-108 -167 0
-108 -168 0
-108 -171 0
-108 -174 0
-108 -208 0
-109 -166 0
-109 -168 0
-109 -170 0
-109 -173 0
-109 -207 0
-110 -166 0
-110 -167 0
-110 -169 0
-110 -172 0
-110 -206 0
-111 -163 0
-111 -164 0
-111 -165 0
-111 -175 0
-111 -205 0
-112 -161 0
-112 -162 0
-112 -165 0
-112 -174 0
-112 -204 0
-113 -160 0
-113 -162 0
-113 -164 0
-113 -173 0
-113 -203 0
-114 -160 0
-114 -161 0
-114 -163 0
-114 -172 0
-114 -202 0
-115 -158 0
-115 -159 0
-115 -165 0
-115 -171 0
-115 -201 0
-116 -157 0
-116 -159 0
-116 -164 0
-116 -170 0
-116 -200 0
-117 -157 0
-117 -158 0
-117 -163 0
-117 -169 0
-117 -199 0
-118 -156 0
-118 -159 0
-118 -162 0
-118 -168 0
-118 -198 0
-119 -156 0
-119 -158 0
-119 -161 0
-119 -167 0
-119 -197 0
-120 -156 0
-120 -157 0
-120 -160 0
-120 -166 0
-120 -196 0
-121 -153 0
-121 -154 0
-121 -155 0
-121 -175 0
-121 -195 0
-122 -151 0
-122 -152 0
-122 -155 0
-122 -174 0
-122 -194 0
-123 -150 0
-123 -152 0
-123 -154 0
-123 -173 0
-123 -193 0
-124 -150 0
-124 -151 0
-124 -153 0
-124 -172 0
-124 -192 0
-125 -148 0
-125 -149 0
-125 -155 0
-125 -171 0
-125 -191 0
-126 -147 0
-126 -149 0
-126 -154 0
-126 -170 0
-126 -190 0
-127 -147 0
-127 -148 0
-127 -153 0
-127 -169 0
-127 -189 0
-128 -146 0
-128 -149 0
-128 -152 0
-128 -168 0
-128 -188 0
-129 -146 0
-129 -148 0
-129 -151 0
-129 -167 0
-129 -187 0
-130 -146 0
-130 -147 0
-130 -150 0
-130 -166 0
-130 -186 0
-131 -144 0
-131 -145 0
-131 -155 0
-131 -165 0
-131 -185 0
-132 -143 0
-132 -145 0
-132 -154 0
-132 -164 0
-132 -184 0
-133 -143 0
-133 -144 0
-133 -153 0
-133 -163 0
-133 -183 0
-134 -142 0
-134 -145 0
-134 -152 0
-134 -162 0
-134 -182 0
-135 -142 0
-135 -144 0
-135 -151 0
-135 -161 0
-135 -181 0
-136 -142 0
-136 -143 0
-136 -150 0
-136 -160 0
-136 -180 0
-137 -141 0
-137 -145 0
-137 -149 0
-137 -159 0
-137 -179 0
-138 -141 0
-138 -144 0
-138 -148 0
-138 -158 0
-138 -178 0
-139 -141 0
-139 -143 0
-139 -147 0
-139 -157 0
-139 -177 0
-140 -141 0
-140 -142 0
-140 -146 0
-140 -156 0
-140 -176 0
-141 -210 0
-142 -209 0
-143 -208 0
-144 -207 0
-145 -206 0
-146 -205 0
-147 -204 0
-148 -203 0
-149 -202 0
-150 -201 0
-151 -200 0
-152 -199 0
-153 -198 0
-154 -197 0
-155 -196 0
-156 -195 0
-157 -194 0
-158 -193 0
-159 -192 0
-160 -191 0
-161 -190 0
-162 -189 0
-163 -188 0
-164 -187 0
-165 -186 0
-166 -185 0
-167 -184 0
-168 -183 0
-169 -182 0
-170 -181 0
-171 -180 0
-172 -179 0
-173 -178 0
-174 -177 0
-175 -176 0
2 3 4 5 6 7 0
1 3 4 5 6 7 0
1 2 4 5 6 7 0
1 2 3 5 6 7 0
1 2 3 4 6 7 0
1 2 3 4 5 7 0
1 2 3 4 5 6 0
8 9 10 11 12 13 0
1 9 10 11 12 13 0
1 8 10 11 12 13 0
1 8 9 11 12 13 0
1 8 9 10 12 13 0
1 8 9 10 11 13 0
1 8 9 10 11 12 0
8 14 15 16 17 18 0
2 14 15 16 17 18 0
2 8 15 16 17 18 0
2 8 14 16 17 18 0
2 8 14 15 17 18 0
2 8 14 15 16 18 0
2 8 14 15 16 17 0
9 14 19 20 21 22 0
3 14 19 20 21 22 0
3 9 19 20 21 22 0
3 9 14 20 21 22 0
3 9 14 19 21 22 0
3 9 14 19 20 22 0
3 9 14 19 20 21 0
10 15 19 23 24 25 0
4 15 19 23 24 25 0
4 10 19 23 24 25 0
4 10 15 23 24 25 0
4 10 15 19 24 25 0
4 10 15 19 23 25 0
4 10 15 19 23 24 0
11 16 20 23 26 27 0
5 16 20 23 26 27 0
5 11 20 23 26 27 0
5 11 16 23 26 27 0
5 11 16 20 26 27 0
5 11 16 20 23 27 0
5 11 16 20 23 26 0
12 17 21 24 26 28 0
6 17 21 24 26 28 0
6 12 21 24 26 28 0
6 12 17 24 26 28 0
6 12 17 21 26 28 0
6 12 17 21 24 28 0
6 12 17 21 24 26 0
13 18 22 25 27 28 0
7 18 22 25 27 28 0
7 13 22 25 27 28 0
7 13 18 25 27 28 0
7 13 18 22 27 28 0
7 13 18 22 25 28 0
7 13 18 22 25 27 0
29 30 31 32 33 34 0
1 30 31 32 33 34 0
1 29 31 32 33 34 0
1 29 30 32 33 34 0
1 29 30 31 33 34 0
1 29 30 31 32 34 0
1 29 30 31 32 33 0
29 35 36 37 38 39 0
2 35 36 37 38 39 0
2 29 36 37 38 39 0
2 29 35 37 38 39 0
2 29 35 36 38 39 0
2 29 35 36 37 39 0
2 29 35 36 37 38 0
30 35 40 41 42 43 0
3 35 40 41 42 43 0
3 30 40 41 42 43 0
3 30 35 41 42 43 0
3 30 35 40 42 43 0
3 30 35 40 41 43 0
3 30 35 40 41 42 0
31 36 40 44 45 46 0
4 36 40 44 45 46 0
4 31 40 44 45 46 0
4 31 36 44 45 46 0
4 31 36 40 45 46 0
4 31 36 40 44 46 0
4 31 36 40 44 45 0
32 37 41 44 47 48 0
5 37 41 44 47 48 0
5 32 41 44 47 48 0
5 32 37 44 47 48 0
5 32 37 41 47 48 0
5 32 37 41 44 48 0
5 32 37 41 44 47 0
33 38 42 45 47 49 0
6 38 42 45 47 49 0
6 33 42 45 47 49 0
6 33 38 45 47 49 0
6 33 38 42 47 49 0
6 33 38 42 45 49 0
6 33 38 42 45 47 0
34 39 43 46 48 49 0
7 39 43 46 48 49 0
7 34 43 46 48 49 0
7 34 39 46 48 49 0
7 34 39 43 48 49 0
7 34 39 43 46 49 0
7 34 39 43 46 48 0
29 50 51 52 53 54 0
8 50 51 52 53 54 0
8 29 51 52 53 54 0
8 29 50 52 53 54 0
8 29 50 51 53 54 0
8 29 50 51 52 54 0
8 29 50 51 52 53 0
30 50 55 56 57 58 0
9 50 55 56 57 58 0
9 30 55 56 57 58 0
9 30 50 56 57 58 0
9 30 50 55 57 58 0
9 30 50 55 56 58 0
9 30 50 55 56 57 0
31 51 55 59 60 61 0
10 51 55 59 60 61 0
10 31 55 59 60 61 0
10 31 51 59 60 61 0
10 31 51 55 60 61 0
10 31 51 55 59 61 0
10 31 51 55 59 60 0
32 52 56 59 62 63 0
11 52 56 59 62 63 0
11 32 56 59 62 63 0
11 32 52 59 62 63 0
11 32 52 56 62 63 0
11 32 52 56 59 63 0
11 32 52 56 59 62 0
33 53 57 60 62 64 0
12 53 57 60 62 64 0
12 33 57 60 62 64 0
12 33 53 60 62 64 0
12 33 53 57 62 64 0
12 33 53 57 60 64 0
12 33 53 57 60 62 0
34 54 58 61 63 64 0
13 54 58 61 63 64 0
13 34 58 61 63 64 0
13 34 54 61 63 64 0
13 34 54 58 63 64 0
13 34 54 58 61 64 0
13 34 54 58 61 63 0
35 50 65 66 67 68 0
14 50 65 66 67 68 0
14 35 65 66 67 68 0
14 35 50 66 67 68 0
14 35 50 65 67 68 0
14 35 50 65 66 68 0
14 35 50 65 66 67 0
36 51 65 69 70 71 0
15 51 65 69 70 71 0
15 36 65 69 70 71 0
15 36 51 69 70 71 0
15 36 51 65 70 71 0
15 36 51 65 69 71 0
15 36 51 65 69 70 0
37 52 66 69 72 73 0
16 52 66 69 72 73 0
16 37 66 69 72 73 0
16 37 52 69 72 73 0
16 37 52 66 72 73 0
16 37 52 66 69 73 0
16 37 52 66 69 72 0
38 53 67 70 72 74 0
17 53 67 70 72 74 0
17 38 67 70 72 74 0
17 38 53 70 72 74 0
17 38 53 67 72 74 0
17 38 53 67 70 74 0
17 38 53 67 70 72 0
39 54 68 71 73 74 0
18 54 68 71 73 74 0
18 39 68 71 73 74 0
18 39 54 71 73 74 0
18 39 54 68 73 74 0
18 39 54 68 71 74 0
18 39 54 68 71 73 0
40 55 65 75 76 77 0
19 55 65 75 76 77 0
19 40 65 75 76 77 0
19 40 55 75 76 77 0
19 40 55 65 76 77 0
19 40 55 65 75 77 0
19 40 55 65 75 76 0
41 56 66 75 78 79 0
20 56 66 75 78 79 0
20 41 66 75 78 79 0
20 41 56 75 78 79 0
20 41 56 66 78 79 0
20 41 56 66 75 79 0
20 41 56 66 75 78 0
42 57 67 76 78 80 0
21 57 67 76 78 80 0
21 42 67 76 78 80 0
21 42 57 76 78 80 0
21 42 57 67 78 80 0
21 42 57 67 76 80 0
21 42 57 67 76 78 0
43 58 68 77 79 80 0
22 58 68 77 79 80 0
22 43 68 77 79 80 0
22 43 58 77 79 80 0
22 43 58 68 79 80 0
22 43 58 68 77 80 0
22 43 58 68 77 79 0
44 59 69 75 81 82 0
23 59 69 75 81 82 0
23 44 69 75 81 82 0
23 44 59 75 81 82 0
23 44 59 69 81 82 0
23 44 59 69 75 82 0
23 44 59 69 75 81 0
45 60 70 76 81 83 0
24 60 70 76 81 83 0
24 45 70 76 81 83 0
24 45 60 76 81 83 0
24 45 60 70 81 83 0
24 45 60 70 76 83 0
24 45 60 70 76 81 0
46 61 71 77 82 83 0
25 61 71 77 82 83 0
25 46 71 77 82 83 0
25 46 61 77 82 83 0
25 46 61 71 82 83 0
25 46 61 71 77 83 0
25 46 61 71 77 82 0
47 62 72 78 81 84 0
26 62 72 78 81 84 0
26 47 72 78 81 84 0
26 47 62 78 81 84 0
26 47 62 72 81 84 0
26 47 62 72 78 84 0
26 47 62 72 78 81 0
48 63 73 79 82 84 0
27 63 73 79 82 84 0
27 48 73 79 82 84 0
27 48 63 79 82 84 0
27 48 63 73 82 84 0
27 48 63 73 79 84 0
27 48 63 73 79 82 0
49 64 74 80 83 84 0
28 64 74 80 83 84 0
28 49 74 80 83 84 0
28 49 64 80 83 84 0
28 49 64 74 83 84 0
28 49 64 74 80 84 0
28 49 64 74 80 83 0
85 86 87 88 89 90 0
1 86 87 88 89 90 0
1 85 87 88 89 90 0
1 85 86 88 89 90 0
1 85 86 87 89 90 0
1 85 86 87 88 90 0
1 85 86 87 88 89 0
85 91 92 93 94 95 0
2 91 92 93 94 95 0
2 85 92 93 94 95 0
2 85 91 93 94 95 0
2 85 91 92 94 95 0
2 85 91 92 93 95 0
2 85 91 92 93 94 0
86 91 96 97 98 99 0
3 91 96 97 98 99 0
3 86 96 97 98 99 0
3 86 91 97 98 99 0
3 86 91 96 98 99 0
3 86 91 96 97 99 0
3 86 91 96 97 98 0
87 92 96 100 101 102 0
4 92 96 100 101 102 0
4 87 96 100 101 102 0
4 87 92 100 101 102 0
4 87 92 96 101 102 0
4 87 92 96 100 102 0
4 87 92 96 100 101 0
88 93 97 100 103 104 0
5 93 97 100 103 104 0
5 88 97 100 103 104 0
5 88 93 100 103 104 0
5 88 93 97 103 104 0
5 88 93 97 100 104 0
5 88 93 97 100 103 0
89 94 98 101 103 105 0
6 94 98 101 103 105 0
6 89 98 101 103 105 0
6 89 94 101 103 105 0
6 89 94 98 103 105 0
6 89 94 98 101 105 0
6 89 94 98 101 103 0
90 95 99 102 104 105 0
7 95 99 102 104 105 0
7 90 99 102 104 105 0
7 90 95 102 104 105 0
7 90 95 99 104 105 0
7 90 95 99 102 105 0
7 90 95 99 102 104 0
85 106 107 108 109 110 0
8 106 107 108 109 110 0
8 85 107 108 109 110 0
8 85 106 108 109 110 0
8 85 106 107 109 110 0
8 85 106 107 108 110 0
8 85 106 107 108 109 0
86 106 111 112 113 114 0
9 106 111 112 113 114 0
9 86 111 112 113 114 0
9 86 106 112 113 114 0
9 86 106 111 113 114 0
9 86 106 111 112 114 0
9 86 106 111 112 113 0
87 107 111 115 116 117 0
10 107 111 115 116 117 0
10 87 111 115 116 117 0
10 87 107 115 116 117 0
10 87 107 111 116 117 0
10 87 107 111 115 117 0
10 87 107 111 115 116 0
88 108 112 115 118 119 0
11 108 112 115 118 119 0
11 88 112 115 118 119 0
11 88 108 115 118 119 0
11 88 108 112 118 119 0
11 88 108 112 115 119 0
11 88 108 112 115 118 0
89 109 113 116 118 120 0
12 109 113 116 118 120 0
12 89 113 116 118 120 0
12 89 109 116 118 120 0
12 89 109 113 118 120 0
12 89 109 113 116 120 0
12 89 109 113 116 118 0
90 110 114 117 119 120 0
13 110 114 117 119 120 0
13 90 114 117 119 120 0
13 90 110 117 119 120 0
13 90 110 114 119 120 0
13 90 110 114 117 120 0
13 90 110 114 117 119 0
91 106 121 122 123 124 0
14 106 121 122 123 124 0
14 91 121 122 123 124 0
14 91 106 122 123 124 0
14 91 106 121 123 124 0
14 91 106 121 122 124 0
14 91 106 121 122 123 0
92 107 121 125 126 127 0
15 107 121 125 126 127 0
15 92 121 125 126 127 0
15 92 107 125 126 127 0
15 92 107 121 126 127 0
15 92 107 121 125 127 0
15 92 107 121 125 126 0
93 108 122 125 128 129 0
16 108 122 125 128 129 0
16 93 122 125 128 129 0
16 93 108 125 128 129 0
16 93 108 122 128 129 0
16 93 108 122 125 129 0
16 93 108 122 125 128 0
94 109 123 126 128 130 0
17 109 123 126 128 130 0
17 94 123 126 128 130 0
17 94 109 126 128 130 0
17 94 109 123 128 130 0
17 94 109 123 126 130 0
17 94 109 123 126 128 0
95 110 124 127 129 130 0
18 110 124 127 129 130 0
18 95 124 127 129 130 0
18 95 110 127 129 130 0
18 95 110 124 129 130 0
18 95 110 124 127 130 0
18 95 110 124 127 129 0
96 111 121 131 132 133 0
19 111 121 131 132 133 0
19 96 121 131 132 133 0
19 96 111 131 132 133 0
19 96 111 121 132 133 0
19 96 111 121 131 133 0
19 96 111 121 131 132 0
97 112 122 131 134 135 0
20 112 122 131 134 135 0
20 97 122 131 134 135 0
20 97 112 131 134 135 0
20 97 112 122 134 135 0
20 97 112 122 131 135 0
20 97 112 122 131 134 0
98 113 123 132 134 136 0
21 113 123 132 134 136 0
21 98 123 132 134 136 0
21 98 113 132 134 136 0
21 98 113 123 134 136 0
21 98 113 123 132 136 0
21 98 113 123 132 134 0
99 114 124 133 135 136 0
22 114 124 133 135 136 0
22 99 124 133 135 136 0
22 99 114 133 135 136 0
22 99 114 124 135 136 0
22 99 114 124 133 136 0
22 99 114 124 133 135 0
100 115 125 131 137 138 0
23 115 125 131 137 138 0
23 100 125 131 137 138 0
23 100 115 131 137 138 0
23 100 115 125 137 138 0
23 100 115 125 131 138 0
23 100 115 125 131 137 0
101 116 126 132 137 139 0
24 116 126 132 137 139 0
24 101 126 132 137 139 0
24 101 116 132 137 139 0
24 101 116 126 137 139 0
24 101 116 126 132 139 0
24 101 116 126 132 137 0
102 117 127 133 138 139 0
25 117 127 133 138 139 0
25 102 127 133 138 139 0
25 102 117 133 138 139 0
25 102 117 127 138 139 0
25 102 117 127 133 139 0
25 102 117 127 133 138 0
103 118 128 134 137 140 0
26 118 128 134 137 140 0
26 103 128 134 137 140 0
26 103 118 134 137 140 0
26 103 118 128 137 140 0
26 103 118 128 134 140 0
26 103 118 128 134 137 0
104 119 129 135 138 140 0
27 119 129 135 138 140 0
27 104 129 135 138 140 0
27 104 119 135 138 140 0
27 104 119 129 138 140 0
27 104 119 129 135 140 0
27 104 119 129 135 138 0
105 120 130 136 139 140 0
28 120 130 136 139 140 0
28 105 130 136 139 140 0
28 105 120 136 139 140 0
28 105 120 130 139 140 0
28 105 120 130 136 140 0
28 105 120 130 136 139 0
85 141 142 143 144 145 0
29 141 142 143 144 145 0
29 85 142 143 144 145 0
29 85 141 143 144 145 0
29 85 141 142 144 145 0
29 85 141 142 143 145 0
29 85 141 142 143 144 0
86 141 146 147 148 149 0
30 141 146 147 148 149 0
30 86 146 147 148 149 0
30 86 141 147 148 149 0
30 86 141 146 148 149 0
30 86 141 146 147 149 0
30 86 141 146 147 148 0
87 142 146 150 151 152 0
31 142 146 150 151 152 0
31 87 146 150 151 152 0
31 87 142 150 151 152 0
31 87 142 146 151 152 0
31 87 142 146 150 152 0
31 87 142 146 150 151 0
88 143 147 150 153 154 0
32 143 147 150 153 154 0
32 88 147 150 153 154 0
32 88 143 150 153 154 0
32 88 143 147 153 154 0
32 88 143 147 150 154 0
32 88 143 147 150 153 0
89 144 148 151 153 155 0
33 144 148 151 153 155 0
33 89 148 151 153 155 0
33 89 144 151 153 155 0
33 89 144 148 153 155 0
33 89 144 148 151 155 0
33 89 144 148 151 153 0
90 145 149 152 154 155 0
34 145 149 152 154 155 0
34 90 149 152 154 155 0
34 90 145 152 154 155 0
34 90 145 149 154 155 0
34 90 145 149 152 155 0
34 90 145 149 152 154 0
91 141 156 157 158 159 0
35 141 156 157 158 159 0
35 91 156 157 158 159 0
35 91 141 157 158 159 0
35 91 141 156 158 159 0
35 91 141 156 157 159 0
35 91 141 156 157 158 0
92 142 156 160 161 162 0
36 142 156 160 161 162 0
36 92 156 160 161 162 0
36 92 142 160 161 162 0
36 92 142 156 161 162 0
36 92 142 156 160 162 0
36 92 142 156 160 161 0
93 143 157 160 163 164 0
37 143 157 160 163 164 0
37 93 157 160 163 164 0
37 93 143 160 163 164 0
37 93 143 157 163 164 0
37 93 143 157 160 164 0
37 93 143 157 160 163 0
94 144 158 161 163 165 0
38 144 158 161 163 165 0
38 94 158 161 163 165 0
38 94 144 161 163 165 0
38 94 144 158 163 165 0
38 94 144 158 161 165 0
38 94 144 158 161 163 0
95 145 159 162 164 165 0
39 145 159 162 164 165 0
39 95 159 162 164 165 0
39 95 145 162 164 165 0
39 95 145 159 164 165 0
39 95 145 159 162 165 0
39 95 145 159 162 164 0
96 146 156 166 167 168 0
40 146 156 166 167 168 0
40 96 156 166 167 168 0
40 96 146 166 167 168 0
40 96 146 156 167 168 0
40 96 146 156 166 168 0
40 96 146 156 166 167 0
97 147 157 166 169 170 0
41 147 157 166 169 170 0
41 97 157 166 169 170 0
41 97 147 166 169 170 0
41 97 147 157 169 170 0
41 97 147 157 166 170 0
41 97 147 157 166 169 0
98 148 158 167 169 171 0
42 148 158 167 169 171 0
42 98 158 167 169 171 0
42 98 148 167 169 171 0
42 98 148 158 169 171 0
42 98 148 158 167 171 0
42 98 148 158 167 169 0
99 149 159 168 170 171 0
43 149 159 168 170 171 0
43 99 159 168 170 171 0
43 99 149 168 170 171 0
43 99 149 159 170 171 0
43 99 149 159 168 171 0
43 99 149 159 168 170 0
100 150 160 166 172 173 0
44 150 160 166 172 173 0
44 100 160 166 172 173 0
44 100 150 166 172 173 0
44 100 150 160 172 173 0
44 100 150 160 166 173 0
44 100 150 160 166 172 0
101 151 161 167 172 174 0
45 151 161 167 172 174 0
45 101 161 167 172 174 0
45 101 151 167 172 174 0
45 101 151 161 172 174 0
45 101 151 161 167 174 0
45 101 151 161 167 172 0
102 152 162 168 173 174 0
46 152 162 168 173 174 0
46 102 162 168 173 174 0
46 102 152 168 173 174 0
46 102 152 162 173 174 0
46 102 152 162 168 174 0
46 102 152 162 168 173 0
103 153 163 169 172 175 0
47 153 163 169 172 175 0
47 103 163 169 172 175 0
47 103 153 169 172 175 0
47 103 153 163 172 175 0
47 103 153 163 169 175 0
47 103 153 163 169 172 0
104 154 164 170 173 175 0
48 154 164 170 173 175 0
48 104 164 170 173 175 0
48 104 154 170 173 175 0
48 104 154 164 173 175 0
48 104 154 164 170 175 0
48 104 154 164 170 173 0
105 155 165 171 174 175 0
49 155 165 171 174 175 0
49 105 165 171 174 175 0
49 105 155 171 174 175 0
49 105 155 165 174 175 0
49 105 155 165 171 175 0
49 105 155 165 171 174 0
106 141 176 177 178 179 0
50 141 176 177 178 179 0
50 106 176 177 178 179 0
50 106 141 177 178 179 0
50 106 141 176 178 179 0
50 106 141 176 177 179 0
50 106 141 176 177 178 0
107 142 176 180 181 182 0
51 142 176 180 181 182 0
51 107 176 180 181 182 0
51 107 142 180 181 182 0
51 107 142 176 181 182 0
51 107 142 176 180 182 0
51 107 142 176 180 181 0
108 143 177 180 183 184 0
52 143 177 180 183 184 0
52 108 177 180 183 184 0
52 108 143 180 183 184 0
52 108 143 177 183 184 0
52 108 143 177 180 184 0
52 108 143 177 180 183 0
109 144 178 181 183 185 0
53 144 178 181 183 185 0
53 109 178 181 183 185 0
53 109 144 181 183 185 0
53 109 144 178 183 185 0
53 109 144 178 181 185 0
53 109 144 178 181 183 0
110 145 179 182 184 185 0
54 145 179 182 184 185 0
54 110 179 182 184 185 0
54 110 145 182 184 185 0
54 110 145 179 184 185 0
54 110 145 179 182 185 0
54 110 145 179 182 184 0
111 146 176 186 187 188 0
55 146 176 186 187 188 0
55 111 176 186 187 188 0
55 111 146 186 187 188 0
55 111 146 176 187 188 0
55 111 146 176 186 188 0
55 111 146 176 186 187 0
112 147 177 186 189 190 0
56 147 177 186 189 190 0
56 112 177 186 189 190 0
56 112 147 186 189 190 0
56 112 147 177 189 190 0
56 112 147 177 186 190 0
56 112 147 177 186 189 0
113 148 178 187 189 191 0
57 148 178 187 189 191 0
57 113 178 187 189 191 0
57 113 148 187 189 191 0
57 113 148 178 189 191 0
57 113 148 178 187 191 0
57 113 148 178 187 189 0
114 149 179 188 190 191 0
58 149 179 188 190 191 0
58 114 179 188 190 191 0
58 114 149 188 190 191 0
58 114 149 179 190 191 0
58 114 149 179 188 191 0
58 114 149 179 188 190 0
115 150 180 186 192 193 0
59 150 180 186 192 193 0
59 115 180 186 192 193 0
59 115 150 186 192 193 0
59 115 150 180 192 193 0
59 115 150 180 186 193 0
59 115 150 180 186 192 0
116 151 181 187 192 194 0
60 151 181 187 192 194 0
60 116 181 187 192 194 0
60 116 151 187 192 194 0
60 116 151 181 192 194 0
60 116 151 181 187 194 0
60 116 151 181 187 192 0
117 152 182 188 193 194 0
61 152 182 188 193 194 0
61 117 182 188 193 194 0
61 117 152 188 193 194 0
61 117 152 182 193 194 0
61 117 152 182 188 194 0
61 117 152 182 188 193 0
118 153 183 189 192 195 0
62 153 183 189 192 195 0
62 118 183 189 192 195 0
62 118 153 189 192 195 0
62 118 153 183 192 195 0
62 118 153 183 189 195 0
62 118 153 183 189 192 0
119 154 184 190 193 195 0
63 154 184 190 193 195 0
63 119 184 190 193 195 0
63 119 154 190 193 195 0
63 119 154 184 193 195 0
63 119 154 184 190 195 0
63 119 154 184 190 193 0
120 155 185 191 194 195 0
64 155 185 191 194 195 0
64 120 185 191 194 195 0
64 120 155 191 194 195 0
64 120 155 185 194 195 0
64 120 155 185 191 195 0
64 120 155 185 191 194 0
121 156 176 196 197 198 0
65 156 176 196 197 198 0
65 121 176 196 197 198 0
65 121 156 196 197 198 0
65 121 156 176 197 198 0
65 121 156 176 196 198 0
65 121 156 176 196 197 0
122 157 177 196 199 200 0
66 157 177 196 199 200 0
66 122 177 196 199 200 0
66 122 157 196 199 200 0
66 122 157 177 199 200 0
66 122 157 177 196 200 0
66 122 157 177 196 199 0
123 158 178 197 199 201 0
67 158 178 197 199 201 0
67 123 178 197 199 201 0
67 123 158 197 199 201 0
67 123 158 178 199 201 0
67 123 158 178 197 201 0
67 123 158 178 197 199 0
124 159 179 198 200 201 0
68 159 179 198 200 201 0
68 124 179 198 200 201 0
68 124 159 198 200 201 0
68 124 159 179 200 201 0
68 124 159 179 198 201 0
68 124 159 179 198 200 0
125 160 180 196 202 203 0
69 160 180 196 202 203 0
69 125 180 196 202 203 0
69 125 160 196 202 203 0
69 125 160 180 202 203 0
69 125 160 180 196 203 0
69 125 160 180 196 202 0
126 161 181 197 202 204 0
70 161 181 197 202 204 0
70 126 181 197 202 204 0
70 126 161 197 202 204 0
70 126 161 181 202 204 0
70 126 161 181 197 204 0
70 126 161 181 197 202 0
127 162 182 198 203 204 0
71 162 182 198 203 204 0
71 127 182 198 203 204 0
71 127 162 198 203 204 0
71 127 162 182 203 204 0
71 127 162 182 198 204 0
71 127 162 182 198 203 0
128 163 183 199 202 205 0
72 163 183 199 202 205 0
72 128 183 199 202 205 0
72 128 163 199 202 205 0
72 128 163 183 202 205 0
72 128 163 183 199 205 0
72 128 163 183 199 202 0
129 164 184 200 203 205 0
73 164 184 200 203 205 0
73 129 184 200 203 205 0
73 129 164 200 203 205 0
73 129 164 184 203 205 0
73 129 164 184 200 205 0
73 129 164 184 200 203 0
130 165 185 201 204 205 0
74 165 185 201 204 205 0
74 130 185 201 204 205 0
74 130 165 201 204 205 0
74 130 165 185 204 205 0
74 130 165 185 201 205 0
74 130 165 185 201 204 0
131 166 186 196 206 207 0
75 166 186 196 206 207 0
75 131 186 196 206 207 0
75 131 166 196 206 207 0
75 131 166 186 206 207 0
75 131 166 186 196 207 0
75 131 166 186 196 206 0
132 167 187 197 206 208 0
76 167 187 197 206 208 0
76 132 187 197 206 208 0
76 132 167 197 206 208 0
76 132 167 187 206 208 0
76 132 167 187 197 208 0
76 132 167 187 197 206 0
133 168 188 198 207 208 0
77 168 188 198 207 208 0
77 133 188 198 207 208 0
77 133 168 198 207 208 0
77 133 168 188 207 208 0
77 133 168 188 198 208 0
77 133 168 188 198 207 0
134 169 189 199 206 209 0
78 169 189 199 206 209 0
78 134 189 199 206 209 0
78 134 169 199 206 209 0
78 134 169 189 206 209 0
78 134 169 189 199 209 0
78 134 169 189 199 206 0
135 170 190 200 207 209 0
79 170 190 200 207 209 0
79 135 190 200 207 209 0
79 135 170 200 207 209 0
79 135 170 190 207 209 0
79 135 170 190 200 209 0
79 135 170 190 200 207 0
136 171 191 201 208 209 0
80 171 191 201 208 209 0
80 136 191 201 208 209 0
80 136 171 201 208 209 0
80 136 171 191 208 209 0
80 136 171 191 201 209 0
80 136 171 191 201 208 0
137 172 192 202 206 210 0
81 172 192 202 206 210 0
81 137 192 202 206 210 0
81 137 172 202 206 210 0
81 137 172 192 206 210 0
81 137 172 192 202 210 0
81 137 172 192 202 206 0
138 173 193 203 207 210 0
82 173 193 203 207 210 0
82 138 193 203 207 210 0
82 138 173 203 207 210 0
82 138 173 193 207 210 0
82 138 173 193 203 210 0
82 138 173 193 203 207 0
139 174 194 204 208 210 0
83 174 194 204 208 210 0
83 139 194 204 208 210 0
83 139 174 204 208 210 0
83 139 174 194 208 210 0
83 139 174 194 204 210 0
83 139 174 194 204 208 0
140 175 195 205 209 210 0
84 175 195 205 209 210 0
84 140 195 205 209 210 0
84 140 175 205 209 210 0
84 140 175 195 209 210 0
84 140 175 195 205 210 0
84 140 175 195 205 209 0
