c canonical (k,d)=(4,3) d-degree EKR counterexample instance
c n 8
c variables are lexicographically ordered 4-subsets of [n]
p cnf 70 315
-1 -70 0
-2 -69 0
-3 -68 0
-4 -67 0
-5 -66 0
-6 -65 0
-7 -64 0
-8 -63 0
-9 -62 0
-10 -61 0
-11 -60 0
-12 -59 0
-13 -58 0
-14 -57 0
-15 -56 0
-16 -55 0
-17 -54 0
-18 -53 0
-19 -52 0
-20 -51 0
-21 -50 0
-22 -49 0
-23 -48 0
-24 -47 0
-25 -46 0
-26 -45 0
-27 -44 0
-28 -43 0
-29 -42 0
-30 -41 0
-31 -40 0
-32 -39 0
-33 -38 0
-34 -37 0
-35 -36 0
2 3 4 5 0
1 3 4 5 0
1 2 4 5 0
1 2 3 5 0
1 2 3 4 0
6 7 8 9 0
1 7 8 9 0
1 6 8 9 0
1 6 7 9 0
1 6 7 8 0
6 10 11 12 0
2 10 11 12 0
2 6 11 12 0
2 6 10 12 0
2 6 10 11 0
7 10 13 14 0
3 10 13 14 0
3 7 13 14 0
3 7 10 14 0
3 7 10 13 0
8 11 13 15 0
4 11 13 15 0
4 8 13 15 0
4 8 11 15 0
4 8 11 13 0
9 12 14 15 0
5 12 14 15 0
5 9 14 15 0
5 9 12 15 0
5 9 12 14 0
16 17 18 19 0
1 17 18 19 0
1 16 18 19 0
1 16 17 19 0
1 16 17 18 0
16 20 21 22 0
2 20 21 22 0
2 16 21 22 0
2 16 20 22 0
2 16 20 21 0
17 20 23 24 0
3 20 23 24 0
3 17 23 24 0
3 17 20 24 0
3 17 20 23 0
18 21 23 25 0
4 21 23 25 0
4 18 23 25 0
4 18 21 25 0
4 18 21 23 0
19 22 24 25 0
5 22 24 25 0
5 19 24 25 0
5 19 22 25 0
5 19 22 24 0
16 26 27 28 0
6 26 27 28 0
6 16 27 28 0
6 16 26 28 0
6 16 26 27 0
17 26 29 30 0
7 26 29 30 0
7 17 29 30 0
7 17 26 30 0
7 17 26 29 0
18 27 29 31 0
8 27 29 31 0
8 18 29 31 0
8 18 27 31 0
8 18 27 29 0
19 28 30 31 0
9 28 30 31 0
9 19 30 31 0
9 19 28 31 0
9 19 28 30 0
20 26 32 33 0
10 26 32 33 0
10 20 32 33 0
10 20 26 33 0
10 20 26 32 0
21 27 32 34 0
11 27 32 34 0
11 21 32 34 0
11 21 27 34 0
11 21 27 32 0
22 28 33 34 0
12 28 33 34 0
12 22 33 34 0
12 22 28 34 0
12 22 28 33 0
23 29 32 35 0
13 29 32 35 0
13 23 32 35 0
13 23 29 35 0
13 23 29 32 0
24 30 33 35 0
14 30 33 35 0
14 24 33 35 0
14 24 30 35 0
14 24 30 33 0
25 31 34 35 0
15 31 34 35 0
15 25 34 35 0
15 25 31 35 0
15 25 31 34 0
36 37 38 39 0
1 37 38 39 0
1 36 38 39 0
1 36 37 39 0
1 36 37 38 0
36 40 41 42 0
2 40 41 42 0
2 36 41 42 0
2 36 40 42 0
2 36 40 41 0
37 40 43 44 0
3 40 43 44 0
3 37 43 44 0
3 37 40 44 0
3 37 40 43 0
38 41 43 45 0
4 41 43 45 0
4 38 43 45 0
4 38 41 45 0
4 38 41 43 0
39 42 44 45 0
5 42 44 45 0
5 39 44 45 0
5 39 42 45 0
5 39 42 44 0
36 46 47 48 0
6 46 47 48 0
6 36 47 48 0
6 36 46 48 0
6 36 46 47 0
37 46 49 50 0
7 46 49 50 0
7 37 49 50 0
7 37 46 50 0
7 37 46 49 0
38 47 49 51 0
8 47 49 51 0
8 38 49 51 0
8 38 47 51 0
8 38 47 49 0
39 48 50 51 0
9 48 50 51 0
9 39 50 51 0
9 39 48 51 0
9 39 48 50 0
40 46 52 53 0
10 46 52 53 0
10 40 52 53 0
10 40 46 53 0
10 40 46 52 0
41 47 52 54 0
11 47 52 54 0
11 41 52 54 0
11 41 47 54 0
11 41 47 52 0
42 48 53 54 0
12 48 53 54 0
12 42 53 54 0
12 42 48 54 0
12 42 48 53 0
43 49 52 55 0
13 49 52 55 0
13 43 52 55 0
13 43 49 55 0
13 43 49 52 0
44 50 53 55 0
14 50 53 55 0
14 44 53 55 0
14 44 50 55 0
14 44 50 53 0
45 51 54 55 0
15 51 54 55 0
15 45 54 55 0
15 45 51 55 0
15 45 51 54 0
36 56 57 58 0
16 56 57 58 0
16 36 57 58 0
16 36 56 58 0
16 36 56 57 0
37 56 59 60 0
17 56 59 60 0
17 37 59 60 0
17 37 56 60 0
17 37 56 59 0
38 57 59 61 0
18 57 59 61 0
18 38 59 61 0
18 38 57 61 0
18 38 57 59 0
39 58 60 61 0
19 58 60 61 0
19 39 60 61 0
19 39 58 61 0
19 39 58 60 0
40 56 62 63 0
20 56 62 63 0
20 40 62 63 0
20 40 56 63 0
20 40 56 62 0
41 57 62 64 0
21 57 62 64 0
21 41 62 64 0
21 41 57 64 0
21 41 57 62 0
42 58 63 64 0
22 58 63 64 0
22 42 63 64 0
22 42 58 64 0
22 42 58 63 0
43 59 62 65 0
23 59 62 65 0
23 43 62 65 0
23 43 59 65 0
23 43 59 62 0
44 60 63 65 0
24 60 63 65 0
24 44 63 65 0
24 44 60 65 0
24 44 60 63 0
45 61 64 65 0
25 61 64 65 0
25 45 64 65 0
25 45 61 65 0
25 45 61 64 0
46 56 66 67 0
26 56 66 67 0
26 46 66 67 0
26 46 56 67 0
26 46 56 66 0
47 57 66 68 0
27 57 66 68 0
27 47 66 68 0
27 47 57 68 0
27 47 57 66 0
48 58 67 68 0
28 58 67 68 0
28 48 67 68 0
28 48 58 68 0
28 48 58 67 0
49 59 66 69 0
29 59 66 69 0
29 49 66 69 0
29 49 59 69 0
29 49 59 66 0
50 60 67 69 0
30 60 67 69 0
30 50 67 69 0
30 50 60 69 0
30 50 60 67 0
51 61 68 69 0
31 61 68 69 0
31 51 68 69 0
31 51 61 69 0
31 51 61 68 0
52 62 66 70 0
32 62 66 70 0
32 52 66 70 0
32 52 62 70 0
32 52 62 66 0
53 63 67 70 0
33 63 67 70 0
33 53 67 70 0
33 53 63 70 0
33 53 63 67 0
54 64 68 70 0
34 64 68 70 0
34 54 68 70 0
34 54 64 70 0
34 54 64 68 0
55 65 69 70 0
35 65 69 70 0
35 55 69 70 0
35 55 65 70 0
35 55 65 69 0
