c parity-compressed Erdos-Szekeres refutation encoding
p cnf 210 1134
-1 -8 2 0
1 8 -2 0
-1 -29 8 0
1 29 -8 0
-1 -9 3 0
1 9 -3 0
-1 -30 9 0
1 30 -9 0
-1 -10 4 0
1 10 -4 0
-1 -31 10 0
1 31 -10 0
-1 -11 5 0
1 11 -5 0
-1 -32 11 0
1 32 -11 0
-1 -12 6 0
1 12 -6 0
-1 -33 12 0
1 33 -12 0
-1 -13 7 0
1 13 -7 0
-1 -34 13 0
1 34 -13 0
-2 -14 3 0
2 14 -3 0
-2 -35 14 0
2 35 -14 0
-2 -15 4 0
2 15 -4 0
-2 -36 15 0
2 36 -15 0
-2 -16 5 0
2 16 -5 0
-2 -37 16 0
2 37 -16 0
-2 -17 6 0
2 17 -6 0
-2 -38 17 0
2 38 -17 0
-2 -18 7 0
2 18 -7 0
-2 -39 18 0
2 39 -18 0
-3 -19 4 0
3 19 -4 0
-3 -40 19 0
3 40 -19 0
-3 -20 5 0
3 20 -5 0
-3 -41 20 0
3 41 -20 0
-3 -21 6 0
3 21 -6 0
-3 -42 21 0
3 42 -21 0
-3 -22 7 0
3 22 -7 0
-3 -43 22 0
3 43 -22 0
-4 -23 5 0
4 23 -5 0
-4 -44 23 0
4 44 -23 0
-4 -24 6 0
4 24 -6 0
-4 -45 24 0
4 45 -24 0
-4 -25 7 0
4 25 -7 0
-4 -46 25 0
4 46 -25 0
-5 -26 6 0
5 26 -6 0
-5 -47 26 0
5 47 -26 0
-5 -27 7 0
5 27 -7 0
-5 -48 27 0
5 48 -27 0
-6 -28 7 0
6 28 -7 0
-6 -49 28 0
6 49 -28 0
-8 -14 9 0
8 14 -9 0
-8 -50 14 0
8 50 -14 0
-8 -15 10 0
8 15 -10 0
-8 -51 15 0
8 51 -15 0
-8 -16 11 0
8 16 -11 0
-8 -52 16 0
8 52 -16 0
-8 -17 12 0
8 17 -12 0
-8 -53 17 0
8 53 -17 0
-8 -18 13 0
8 18 -13 0
-8 -54 18 0
8 54 -18 0
-9 -19 10 0
9 19 -10 0
-9 -55 19 0
9 55 -19 0
-9 -20 11 0
9 20 -11 0
-9 -56 20 0
9 56 -20 0
-9 -21 12 0
9 21 -12 0
-9 -57 21 0
9 57 -21 0
-9 -22 13 0
9 22 -13 0
-9 -58 22 0
9 58 -22 0
-10 -23 11 0
10 23 -11 0
-10 -59 23 0
10 59 -23 0
-10 -24 12 0
10 24 -12 0
-10 -60 24 0
10 60 -24 0
-10 -25 13 0
10 25 -13 0
-10 -61 25 0
10 61 -25 0
-11 -26 12 0
11 26 -12 0
-11 -62 26 0
11 62 -26 0
-11 -27 13 0
11 27 -13 0
-11 -63 27 0
11 63 -27 0
-12 -28 13 0
12 28 -13 0
-12 -64 28 0
12 64 -28 0
-14 -19 15 0
14 19 -15 0
-14 -65 19 0
14 65 -19 0
-14 -20 16 0
14 20 -16 0
-14 -66 20 0
14 66 -20 0
-14 -21 17 0
14 21 -17 0
-14 -67 21 0
14 67 -21 0
-14 -22 18 0
14 22 -18 0
-14 -68 22 0
14 68 -22 0
-15 -23 16 0
15 23 -16 0
-15 -69 23 0
15 69 -23 0
-15 -24 17 0
15 24 -17 0
-15 -70 24 0
15 70 -24 0
-15 -25 18 0
15 25 -18 0
-15 -71 25 0
15 71 -25 0
-16 -26 17 0
16 26 -17 0
-16 -72 26 0
16 72 -26 0
-16 -27 18 0
16 27 -18 0
-16 -73 27 0
16 73 -27 0
-17 -28 18 0
17 28 -18 0
-17 -74 28 0
17 74 -28 0
-19 -23 20 0
19 23 -20 0
-19 -75 23 0
19 75 -23 0
-19 -24 21 0
19 24 -21 0
-19 -76 24 0
19 76 -24 0
-19 -25 22 0
19 25 -22 0
-19 -77 25 0
19 77 -25 0
-20 -26 21 0
20 26 -21 0
-20 -78 26 0
20 78 -26 0
-20 -27 22 0
20 27 -22 0
-20 -79 27 0
20 79 -27 0
-21 -28 22 0
21 28 -22 0
-21 -80 28 0
21 80 -28 0
-23 -26 24 0
23 26 -24 0
-23 -81 26 0
23 81 -26 0
-23 -27 25 0
23 27 -25 0
-23 -82 27 0
23 82 -27 0
-24 -28 25 0
24 28 -25 0
-24 -83 28 0
24 83 -28 0
-26 -28 27 0
26 28 -27 0
-26 -84 28 0
26 84 -28 0
-29 -35 30 0
29 35 -30 0
-29 -50 35 0
29 50 -35 0
-29 -36 31 0
29 36 -31 0
-29 -51 36 0
29 51 -36 0
-29 -37 32 0
29 37 -32 0
-29 -52 37 0
29 52 -37 0
-29 -38 33 0
29 38 -33 0
-29 -53 38 0
29 53 -38 0
-29 -39 34 0
29 39 -34 0
-29 -54 39 0
29 54 -39 0
-30 -40 31 0
30 40 -31 0
-30 -55 40 0
30 55 -40 0
-30 -41 32 0
30 41 -32 0
-30 -56 41 0
30 56 -41 0
-30 -42 33 0
30 42 -33 0
-30 -57 42 0
30 57 -42 0
-30 -43 34 0
30 43 -34 0
-30 -58 43 0
30 58 -43 0
-31 -44 32 0
31 44 -32 0
-31 -59 44 0
31 59 -44 0
-31 -45 33 0
31 45 -33 0
-31 -60 45 0
31 60 -45 0
-31 -46 34 0
31 46 -34 0
-31 -61 46 0
31 61 -46 0
-32 -47 33 0
32 47 -33 0
-32 -62 47 0
32 62 -47 0
-32 -48 34 0
32 48 -34 0
-32 -63 48 0
32 63 -48 0
-33 -49 34 0
33 49 -34 0
-33 -64 49 0
33 64 -49 0
-35 -40 36 0
35 40 -36 0
-35 -65 40 0
35 65 -40 0
-35 -41 37 0
35 41 -37 0
-35 -66 41 0
35 66 -41 0
-35 -42 38 0
35 42 -38 0
-35 -67 42 0
35 67 -42 0
-35 -43 39 0
35 43 -39 0
-35 -68 43 0
35 68 -43 0
-36 -44 37 0
36 44 -37 0
-36 -69 44 0
36 69 -44 0
-36 -45 38 0
36 45 -38 0
-36 -70 45 0
36 70 -45 0
-36 -46 39 0
36 46 -39 0
-36 -71 46 0
36 71 -46 0
-37 -47 38 0
37 47 -38 0
-37 -72 47 0
37 72 -47 0
-37 -48 39 0
37 48 -39 0
-37 -73 48 0
37 73 -48 0
-38 -49 39 0
38 49 -39 0
-38 -74 49 0
38 74 -49 0
-40 -44 41 0
40 44 -41 0
-40 -75 44 0
40 75 -44 0
-40 -45 42 0
40 45 -42 0
-40 -76 45 0
40 76 -45 0
-40 -46 43 0
40 46 -43 0
-40 -77 46 0
40 77 -46 0
-41 -47 42 0
41 47 -42 0
-41 -78 47 0
41 78 -47 0
-41 -48 43 0
41 48 -43 0
-41 -79 48 0
41 79 -48 0
-42 -49 43 0
42 49 -43 0
-42 -80 49 0
42 80 -49 0
-44 -47 45 0
44 47 -45 0
-44 -81 47 0
44 81 -47 0
-44 -48 46 0
44 48 -46 0
-44 -82 48 0
44 82 -48 0
-45 -49 46 0
45 49 -46 0
-45 -83 49 0
45 83 -49 0
-47 -49 48 0
47 49 -48 0
-47 -84 49 0
47 84 -49 0
-50 -55 51 0
50 55 -51 0
-50 -65 55 0
50 65 -55 0
-50 -56 52 0
50 56 -52 0
-50 -66 56 0
50 66 -56 0
-50 -57 53 0
50 57 -53 0
-50 -67 57 0
50 67 -57 0
-50 -58 54 0
50 58 -54 0
-50 -68 58 0
50 68 -58 0
-51 -59 52 0
51 59 -52 0
-51 -69 59 0
51 69 -59 0
-51 -60 53 0
51 60 -53 0
-51 -70 60 0
51 70 -60 0
-51 -61 54 0
51 61 -54 0
-51 -71 61 0
51 71 -61 0
-52 -62 53 0
52 62 -53 0
-52 -72 62 0
52 72 -62 0
-52 -63 54 0
52 63 -54 0
-52 -73 63 0
52 73 -63 0
-53 -64 54 0
53 64 -54 0
-53 -74 64 0
53 74 -64 0
-55 -59 56 0
55 59 -56 0
-55 -75 59 0
55 75 -59 0
-55 -60 57 0
55 60 -57 0
-55 -76 60 0
55 76 -60 0
-55 -61 58 0
55 61 -58 0
-55 -77 61 0
55 77 -61 0
-56 -62 57 0
56 62 -57 0
-56 -78 62 0
56 78 -62 0
-56 -63 58 0
56 63 -58 0
-56 -79 63 0
56 79 -63 0
-57 -64 58 0
57 64 -58 0
-57 -80 64 0
57 80 -64 0
-59 -62 60 0
59 62 -60 0
-59 -81 62 0
59 81 -62 0
-59 -63 61 0
59 63 -61 0
-59 -82 63 0
59 82 -63 0
-60 -64 61 0
60 64 -61 0
-60 -83 64 0
60 83 -64 0
-62 -64 63 0
62 64 -63 0
-62 -84 64 0
62 84 -64 0
-65 -69 66 0
65 69 -66 0
-65 -75 69 0
65 75 -69 0
-65 -70 67 0
65 70 -67 0
-65 -76 70 0
65 76 -70 0
-65 -71 68 0
65 71 -68 0
-65 -77 71 0
65 77 -71 0
-66 -72 67 0
66 72 -67 0
-66 -78 72 0
66 78 -72 0
-66 -73 68 0
66 73 -68 0
-66 -79 73 0
66 79 -73 0
-67 -74 68 0
67 74 -68 0
-67 -80 74 0
67 80 -74 0
-69 -72 70 0
69 72 -70 0
-69 -81 72 0
69 81 -72 0
-69 -73 71 0
69 73 -71 0
-69 -82 73 0
69 82 -73 0
-70 -74 71 0
70 74 -71 0
-70 -83 74 0
70 83 -74 0
-72 -74 73 0
72 74 -73 0
-72 -84 74 0
72 84 -74 0
-75 -78 76 0
75 78 -76 0
-75 -81 78 0
75 81 -78 0
-75 -79 77 0
75 79 -77 0
-75 -82 79 0
75 82 -79 0
-76 -80 77 0
76 80 -77 0
-76 -83 80 0
76 83 -80 0
-78 -80 79 0
78 80 -79 0
-78 -84 80 0
78 84 -80 0
-81 -83 82 0
81 83 -82 0
-81 -84 83 0
81 84 -83 0
-85 1 29 0
-85 -1 -29 0
-85 -2 8 0
-85 2 -8 0
-86 1 30 0
-86 -1 -30 0
-86 -3 9 0
-86 3 -9 0
-87 1 31 0
-87 -1 -31 0
-87 -4 10 0
-87 4 -10 0
-88 1 32 0
-88 -1 -32 0
-88 -5 11 0
-88 5 -11 0
-89 1 33 0
-89 -1 -33 0
-89 -6 12 0
-89 6 -12 0
-90 1 34 0
-90 -1 -34 0
-90 -7 13 0
-90 7 -13 0
-91 2 35 0
-91 -2 -35 0
-91 -3 14 0
-91 3 -14 0
-92 2 36 0
-92 -2 -36 0
-92 -4 15 0
-92 4 -15 0
-93 2 37 0
-93 -2 -37 0
-93 -5 16 0
-93 5 -16 0
-94 2 38 0
-94 -2 -38 0
-94 -6 17 0
-94 6 -17 0
-95 2 39 0
-95 -2 -39 0
-95 -7 18 0
-95 7 -18 0
-96 3 40 0
-96 -3 -40 0
-96 -4 19 0
-96 4 -19 0
-97 3 41 0
-97 -3 -41 0
-97 -5 20 0
-97 5 -20 0
-98 3 42 0
-98 -3 -42 0
-98 -6 21 0
-98 6 -21 0
-99 3 43 0
-99 -3 -43 0
-99 -7 22 0
-99 7 -22 0
-100 4 44 0
-100 -4 -44 0
-100 -5 23 0
-100 5 -23 0
-101 4 45 0
-101 -4 -45 0
-101 -6 24 0
-101 6 -24 0
-102 4 46 0
-102 -4 -46 0
-102 -7 25 0
-102 7 -25 0
-103 5 47 0
-103 -5 -47 0
-103 -6 26 0
-103 6 -26 0
-104 5 48 0
-104 -5 -48 0
-104 -7 27 0
-104 7 -27 0
-105 6 49 0
-105 -6 -49 0
-105 -7 28 0
-105 7 -28 0
-106 8 50 0
-106 -8 -50 0
-106 -9 14 0
-106 9 -14 0
-107 8 51 0
-107 -8 -51 0
-107 -10 15 0
-107 10 -15 0
-108 8 52 0
-108 -8 -52 0
-108 -11 16 0
-108 11 -16 0
-109 8 53 0
-109 -8 -53 0
-109 -12 17 0
-109 12 -17 0
-110 8 54 0
-110 -8 -54 0
-110 -13 18 0
-110 13 -18 0
-111 9 55 0
-111 -9 -55 0
-111 -10 19 0
-111 10 -19 0
-112 9 56 0
-112 -9 -56 0
-112 -11 20 0
-112 11 -20 0
-113 9 57 0
-113 -9 -57 0
-113 -12 21 0
-113 12 -21 0
-114 9 58 0
-114 -9 -58 0
-114 -13 22 0
-114 13 -22 0
-115 10 59 0
-115 -10 -59 0
-115 -11 23 0
-115 11 -23 0
-116 10 60 0
-116 -10 -60 0
-116 -12 24 0
-116 12 -24 0
-117 10 61 0
-117 -10 -61 0
-117 -13 25 0
-117 13 -25 0
-118 11 62 0
-118 -11 -62 0
-118 -12 26 0
-118 12 -26 0
-119 11 63 0
-119 -11 -63 0
-119 -13 27 0
-119 13 -27 0
-120 12 64 0
-120 -12 -64 0
-120 -13 28 0
-120 13 -28 0
-121 14 65 0
-121 -14 -65 0
-121 -15 19 0
-121 15 -19 0
-122 14 66 0
-122 -14 -66 0
-122 -16 20 0
-122 16 -20 0
-123 14 67 0
-123 -14 -67 0
-123 -17 21 0
-123 17 -21 0
-124 14 68 0
-124 -14 -68 0
-124 -18 22 0
-124 18 -22 0
-125 15 69 0
-125 -15 -69 0
-125 -16 23 0
-125 16 -23 0
-126 15 70 0
-126 -15 -70 0
-126 -17 24 0
-126 17 -24 0
-127 15 71 0
-127 -15 -71 0
-127 -18 25 0
-127 18 -25 0
-128 16 72 0
-128 -16 -72 0
-128 -17 26 0
-128 17 -26 0
-129 16 73 0
-129 -16 -73 0
-129 -18 27 0
-129 18 -27 0
-130 17 74 0
-130 -17 -74 0
-130 -18 28 0
-130 18 -28 0
-131 19 75 0
-131 -19 -75 0
-131 -20 23 0
-131 20 -23 0
-132 19 76 0
-132 -19 -76 0
-132 -21 24 0
-132 21 -24 0
-133 19 77 0
-133 -19 -77 0
-133 -22 25 0
-133 22 -25 0
-134 20 78 0
-134 -20 -78 0
-134 -21 26 0
-134 21 -26 0
-135 20 79 0
-135 -20 -79 0
-135 -22 27 0
-135 22 -27 0
-136 21 80 0
-136 -21 -80 0
-136 -22 28 0
-136 22 -28 0
-137 23 81 0
-137 -23 -81 0
-137 -24 26 0
-137 24 -26 0
-138 23 82 0
-138 -23 -82 0
-138 -25 27 0
-138 25 -27 0
-139 24 83 0
-139 -24 -83 0
-139 -25 28 0
-139 25 -28 0
-140 26 84 0
-140 -26 -84 0
-140 -27 28 0
-140 27 -28 0
-141 29 50 0
-141 -29 -50 0
-141 -30 35 0
-141 30 -35 0
-142 29 51 0
-142 -29 -51 0
-142 -31 36 0
-142 31 -36 0
-143 29 52 0
-143 -29 -52 0
-143 -32 37 0
-143 32 -37 0
-144 29 53 0
-144 -29 -53 0
-144 -33 38 0
-144 33 -38 0
-145 29 54 0
-145 -29 -54 0
-145 -34 39 0
-145 34 -39 0
-146 30 55 0
-146 -30 -55 0
-146 -31 40 0
-146 31 -40 0
-147 30 56 0
-147 -30 -56 0
-147 -32 41 0
-147 32 -41 0
-148 30 57 0
-148 -30 -57 0
-148 -33 42 0
-148 33 -42 0
-149 30 58 0
-149 -30 -58 0
-149 -34 43 0
-149 34 -43 0
-150 31 59 0
-150 -31 -59 0
-150 -32 44 0
-150 32 -44 0
-151 31 60 0
-151 -31 -60 0
-151 -33 45 0
-151 33 -45 0
-152 31 61 0
-152 -31 -61 0
-152 -34 46 0
-152 34 -46 0
-153 32 62 0
-153 -32 -62 0
-153 -33 47 0
-153 33 -47 0
-154 32 63 0
-154 -32 -63 0
-154 -34 48 0
-154 34 -48 0
-155 33 64 0
-155 -33 -64 0
-155 -34 49 0
-155 34 -49 0
-156 35 65 0
-156 -35 -65 0
-156 -36 40 0
-156 36 -40 0
-157 35 66 0
-157 -35 -66 0
-157 -37 41 0
-157 37 -41 0
-158 35 67 0
-158 -35 -67 0
-158 -38 42 0
-158 38 -42 0
-159 35 68 0
-159 -35 -68 0
-159 -39 43 0
-159 39 -43 0
-160 36 69 0
-160 -36 -69 0
-160 -37 44 0
-160 37 -44 0
-161 36 70 0
-161 -36 -70 0
-161 -38 45 0
-161 38 -45 0
-162 36 71 0
-162 -36 -71 0
-162 -39 46 0
-162 39 -46 0
-163 37 72 0
-163 -37 -72 0
-163 -38 47 0
-163 38 -47 0
-164 37 73 0
-164 -37 -73 0
-164 -39 48 0
-164 39 -48 0
-165 38 74 0
-165 -38 -74 0
-165 -39 49 0
-165 39 -49 0
-166 40 75 0
-166 -40 -75 0
-166 -41 44 0
-166 41 -44 0
-167 40 76 0
-167 -40 -76 0
-167 -42 45 0
-167 42 -45 0
-168 40 77 0
-168 -40 -77 0
-168 -43 46 0
-168 43 -46 0
-169 41 78 0
-169 -41 -78 0
-169 -42 47 0
-169 42 -47 0
-170 41 79 0
-170 -41 -79 0
-170 -43 48 0
-170 43 -48 0
-171 42 80 0
-171 -42 -80 0
-171 -43 49 0
-171 43 -49 0
-172 44 81 0
-172 -44 -81 0
-172 -45 47 0
-172 45 -47 0
-173 44 82 0
-173 -44 -82 0
-173 -46 48 0
-173 46 -48 0
-174 45 83 0
-174 -45 -83 0
-174 -46 49 0
-174 46 -49 0
-175 47 84 0
-175 -47 -84 0
-175 -48 49 0
-175 48 -49 0
-176 50 65 0
-176 -50 -65 0
-176 -51 55 0
-176 51 -55 0
-177 50 66 0
-177 -50 -66 0
-177 -52 56 0
-177 52 -56 0
-178 50 67 0
-178 -50 -67 0
-178 -53 57 0
-178 53 -57 0
-179 50 68 0
-179 -50 -68 0
-179 -54 58 0
-179 54 -58 0
-180 51 69 0
-180 -51 -69 0
-180 -52 59 0
-180 52 -59 0
-181 51 70 0
-181 -51 -70 0
-181 -53 60 0
-181 53 -60 0
-182 51 71 0
-182 -51 -71 0
-182 -54 61 0
-182 54 -61 0
-183 52 72 0
-183 -52 -72 0
-183 -53 62 0
-183 53 -62 0
-184 52 73 0
-184 -52 -73 0
-184 -54 63 0
-184 54 -63 0
-185 53 74 0
-185 -53 -74 0
-185 -54 64 0
-185 54 -64 0
-186 55 75 0
-186 -55 -75 0
-186 -56 59 0
-186 56 -59 0
-187 55 76 0
-187 -55 -76 0
-187 -57 60 0
-187 57 -60 0
-188 55 77 0
-188 -55 -77 0
-188 -58 61 0
-188 58 -61 0
-189 56 78 0
-189 -56 -78 0
-189 -57 62 0
-189 57 -62 0
-190 56 79 0
-190 -56 -79 0
-190 -58 63 0
-190 58 -63 0
-191 57 80 0
-191 -57 -80 0
-191 -58 64 0
-191 58 -64 0
-192 59 81 0
-192 -59 -81 0
-192 -60 62 0
-192 60 -62 0
-193 59 82 0
-193 -59 -82 0
-193 -61 63 0
-193 61 -63 0
-194 60 83 0
-194 -60 -83 0
-194 -61 64 0
-194 61 -64 0
-195 62 84 0
-195 -62 -84 0
-195 -63 64 0
-195 63 -64 0
-196 65 75 0
-196 -65 -75 0
-196 -66 69 0
-196 66 -69 0
-197 65 76 0
-197 -65 -76 0
-197 -67 70 0
-197 67 -70 0
-198 65 77 0
-198 -65 -77 0
-198 -68 71 0
-198 68 -71 0
-199 66 78 0
-199 -66 -78 0
-199 -67 72 0
-199 67 -72 0
-200 66 79 0
-200 -66 -79 0
-200 -68 73 0
-200 68 -73 0
-201 67 80 0
-201 -67 -80 0
-201 -68 74 0
-201 68 -74 0
-202 69 81 0
-202 -69 -81 0
-202 -70 72 0
-202 70 -72 0
-203 69 82 0
-203 -69 -82 0
-203 -71 73 0
-203 71 -73 0
-204 70 83 0
-204 -70 -83 0
-204 -71 74 0
-204 71 -74 0
-205 72 84 0
-205 -72 -84 0
-205 -73 74 0
-205 73 -74 0
-206 75 81 0
-206 -75 -81 0
-206 -76 78 0
-206 76 -78 0
-207 75 82 0
-207 -75 -82 0
-207 -77 79 0
-207 77 -79 0
-208 76 83 0
-208 -76 -83 0
-208 -77 80 0
-208 77 -80 0
-209 78 84 0
-209 -78 -84 0
-209 -79 80 0
-209 79 -80 0
-210 81 84 0
-210 -81 -84 0
-210 -82 83 0
-210 82 -83 0
85 86 91 106 141 0
85 87 92 107 142 0
85 88 93 108 143 0
85 89 94 109 144 0
85 90 95 110 145 0
86 87 96 111 146 0
86 88 97 112 147 0
86 89 98 113 148 0
86 90 99 114 149 0
87 88 100 115 150 0
87 89 101 116 151 0
87 90 102 117 152 0
88 89 103 118 153 0
88 90 104 119 154 0
89 90 105 120 155 0
91 92 96 121 156 0
91 93 97 122 157 0
91 94 98 123 158 0
91 95 99 124 159 0
92 93 100 125 160 0
92 94 101 126 161 0
92 95 102 127 162 0
93 94 103 128 163 0
93 95 104 129 164 0
94 95 105 130 165 0
96 97 100 131 166 0
96 98 101 132 167 0
96 99 102 133 168 0
97 98 103 134 169 0
97 99 104 135 170 0
98 99 105 136 171 0
100 101 103 137 172 0
100 102 104 138 173 0
101 102 105 139 174 0
103 104 105 140 175 0
106 107 111 121 176 0
106 108 112 122 177 0
106 109 113 123 178 0
106 110 114 124 179 0
107 108 115 125 180 0
107 109 116 126 181 0
107 110 117 127 182 0
108 109 118 128 183 0
108 110 119 129 184 0
109 110 120 130 185 0
111 112 115 131 186 0
111 113 116 132 187 0
111 114 117 133 188 0
112 113 118 134 189 0
112 114 119 135 190 0
113 114 120 136 191 0
115 116 118 137 192 0
115 117 119 138 193 0
116 117 120 139 194 0
118 119 120 140 195 0
121 122 125 131 196 0
121 123 126 132 197 0
121 124 127 133 198 0
122 123 128 134 199 0
122 124 129 135 200 0
123 124 130 136 201 0
125 126 128 137 202 0
125 127 129 138 203 0
126 127 130 139 204 0
128 129 130 140 205 0
131 132 134 137 206 0
131 133 135 138 207 0
132 133 136 139 208 0
134 135 136 140 209 0
137 138 139 140 210 0
141 142 146 156 176 0
141 143 147 157 177 0
141 144 148 158 178 0
141 145 149 159 179 0
142 143 150 160 180 0
142 144 151 161 181 0
142 145 152 162 182 0
143 144 153 163 183 0
143 145 154 164 184 0
144 145 155 165 185 0
146 147 150 166 186 0
146 148 151 167 187 0
146 149 152 168 188 0
147 148 153 169 189 0
147 149 154 170 190 0
148 149 155 171 191 0
150 151 153 172 192 0
150 152 154 173 193 0
151 152 155 174 194 0
153 154 155 175 195 0
156 157 160 166 196 0
156 158 161 167 197 0
156 159 162 168 198 0
157 158 163 169 199 0
157 159 164 170 200 0
158 159 165 171 201 0
160 161 163 172 202 0
160 162 164 173 203 0
161 162 165 174 204 0
163 164 165 175 205 0
166 167 169 172 206 0
166 168 170 173 207 0
167 168 171 174 208 0
169 170 171 175 209 0
172 173 174 175 210 0
176 177 180 186 196 0
176 178 181 187 197 0
176 179 182 188 198 0
177 178 183 189 199 0
177 179 184 190 200 0
178 179 185 191 201 0
180 181 183 192 202 0
180 182 184 193 203 0
181 182 185 194 204 0
183 184 185 195 205 0
186 187 189 192 206 0
186 188 190 193 207 0
187 188 191 194 208 0
189 190 191 195 209 0
192 193 194 195 210 0
196 197 199 202 206 0
196 198 200 203 207 0
197 198 201 204 208 0
199 200 201 205 209 0
202 203 204 205 210 0
206 207 208 209 210 0
